cauchy_stress_x:0,cauchy_stress_x:1,cauchy_stress_x:2,cauchy_stress_yy,cauchy_stress_yz,cauchy_stress_zz,stress_maxPrincipal,stress_midPrincipal,stress_minPrincipal,volume,Cell Type,Cell ID,Block Number
308.549,-0.0029586,0.000302222,-0.013506,-0.0124468,308.554,308.554,308.549,-0.0136989,2.93999e-05,25,0,2
308.557,0.0296219,4.97117e-07,-0.0136335,-0.00194152,308.557,308.558,308.555,-0.0137952,3.67262e-05,25,1,2
308.542,0.028758,0.000522185,-0.0128175,-0.0018849,308.55,308.55,308.542,-0.0130288,2.20736e-05,25,2,2
308.549,-0.00130865,0.0003231,-0.013506,0.0127265,308.554,308.554,308.549,-0.0136989,2.93999e-05,25,3,2
331.449,-0.0118828,-4.13706e-05,-0.00207298,-0.0125268,331.452,331.454,331.447,-0.00225274,2.93999e-05,25,4,2
331.451,0.0214716,0.000507667,-0.00268547,-0.00140732,331.459,331.461,331.45,-0.00283463,3.67262e-05,25,5,2
331.448,0.0143047,0.000248296,-0.000459507,-0.00093758,331.451,331.453,331.446,-0.000653443,2.20736e-05,25,6,2
331.449,-0.010146,0.000434745,-0.00207298,0.0139706,331.452,331.454,331.447,-0.00225274,2.93999e-05,25,7,2
308.516,0.0364671,0.00104393,-0.0131545,-0.001227,308.536,308.536,308.516,-0.0131663,2.9506e-05,25,8,2
308.518,0.033641,0.000379854,-0.0132484,0.00101769,308.537,308.537,308.518,-0.0132589,3.68382e-05,25,9,2
308.532,0.0259798,0.000527988,-0.013105,-0.0176628,308.544,308.544,308.532,-0.0131348,2.21212e-05,25,10,2
308.536,0.0381469,5.15362e-05,-0.0128717,0.00811399,308.547,308.547,308.536,-0.0129068,2.94495e-05,25,11,2
331.415,0.0130369,0.000922317,-0.00185612,-8.75796e-05,331.434,331.435,331.415,-0.00186352,2.9506e-05,25,12,2
331.416,0.0107314,0.000329353,-0.00189896,0.00132726,331.436,331.436,331.416,-0.0019056,3.68382e-05,25,13,2
331.428,0.00653939,0.000568901,-0.00284395,-0.0166124,331.443,331.443,331.428,-0.00286974,2.21212e-05,25,14,2
331.435,0.0200247,0.000177565,-0.00219544,0.0086909,331.446,331.446,331.435,-0.00222517,2.94495e-05,25,15,2
308.537,0.0367615,0.00129204,-0.0128717,-0.0130237,308.547,308.547,308.536,-0.0129068,2.94495e-05,25,16,2
308.518,0.0332204,0.00207493,-0.0132484,-0.00540002,308.537,308.537,308.518,-0.0132589,3.68382e-05,25,17,2
308.532,0.028063,0.00104357,-0.013105,0.0141207,308.544,308.544,308.532,-0.0131348,2.21212e-05,25,18,2
308.516,0.0363152,0.00154777,-0.0131545,-0.0035434,308.536,308.536,308.516,-0.0131663,2.9506e-05,25,19,2
331.435,0.0187189,0.00126822,-0.00219544,-0.0112303,331.446,331.446,331.435,-0.00222517,2.94495e-05,25,20,2
331.416,0.0104663,0.00221058,-0.00189896,-0.00271663,331.436,331.436,331.416,-0.0019056,3.68382e-05,25,21,2
331.428,0.0086518,0.00139781,-0.00284395,0.0156167,331.443,331.443,331.428,-0.00286974,2.21212e-05,25,22,2
331.415,0.0129368,0.00167285,-0.00185612,-0.00161482,331.434,331.435,331.415,-0.00186352,2.9506e-05,25,23,2
228.487,0.0311228,9.22941e-05,-0.128945,-0.0135039,228.491,228.491,228.487,-0.129211,5.87998e-05,25,24,2
228.492,0.0459046,7.38236e-05,-0.128994,-0.00300875,228.494,228.494,228.492,-0.129217,7.34525e-05,25,25,2
228.483,0.0719915,0.000363126,-0.128858,-0.00471857,228.488,228.489,228.483,-0.129165,4.41471e-05,25,26,2
228.487,0.0326192,0.000356405,-0.128945,0.00932605,228.491,228.491,228.487,-0.129211,5.87998e-05,25,27,2
274.223,0.0130787,8.9398e-05,-0.0501201,-0.013025,274.227,274.227,274.223,-0.0503384,5.87998e-05,25,28,2
274.229,0.0365421,9.44244e-05,-0.0502292,-0.0023951,274.23,274.23,274.229,-0.0504127,7.34525e-05,25,29,2
274.217,0.0486586,0.000428955,-0.0499918,-0.00318925,274.224,274.224,274.217,-0.0502363,4.41471e-05,25,30,2
274.223,0.0146669,0.000434955,-0.0501201,0.0112065,274.227,274.227,274.223,-0.0503384,5.87998e-05,25,31,2
228.462,0.107617,0.000726296,-0.12869,-0.0047208,228.477,228.477,228.462,-0.128752,5.90119e-05,25,32,2
228.464,0.10327,0.000239563,-0.128697,-0.0001424,228.478,228.478,228.464,-0.128755,7.36764e-05,25,33,2
228.474,0.082021,0.000472878,-0.128813,-0.0204812,228.484,228.484,228.474,-0.128881,4.42423e-05,25,34,2
228.478,0.0892807,0.000136903,-0.128839,0.00725532,228.486,228.486,228.478,-0.128915,5.88989e-05,25,35,2
274.193,0.0693556,0.000855513,-0.0497418,-0.00284414,274.211,274.211,274.193,-0.0497686,5.90119e-05,25,36,2
274.195,0.0658644,0.000276342,-0.0497209,0.000469015,274.212,274.212,274.195,-0.0497453,7.36764e-05,25,37,2
274.207,0.0517008,0.000575223,-0.0498362,-0.0189454,274.218,274.218,274.207,-0.0498775,4.42423e-05,25,38,2
274.211,0.061503,0.000178051,-0.0499164,0.00775896,274.22,274.22,274.211,-0.0499646,5.88989e-05,25,39,2
228.478,0.0875698,0.000891606,-0.128839,-0.0188467,228.485,228.486,228.478,-0.128915,5.88989e-05,25,40,2
228.464,0.102405,0.00161722,-0.128697,-0.0133383,228.478,228.478,228.464,-0.128755,7.36764e-05,25,41,2
228.474,0.0839926,0.000756517,-0.128813,0.00960009,228.484,228.484,228.474,-0.128881,4.42423e-05,25,42,2
228.463,0.107312,0.00122423,-0.12869,-0.00936638,228.477,228.477,228.462,-0.128752,5.90119e-05,25,43,2
274.211,0.0599641,0.00105654,-0.0499164,-0.0157203,274.22,274.22,274.211,-0.0499646,5.88989e-05,25,44,2
274.195,0.0652397,0.00194078,-0.0497209,-0.00906203,274.211,274.212,274.195,-0.0497453,7.36764e-05,25,45,2
274.207,0.0537314,0.000903662,-0.0498362,0.012035,274.218,274.218,274.207,-0.0498775,4.42423e-05,25,46,2
274.193,0.0691334,0.00147136,-0.0497418,-0.00623291,274.211,274.211,274.193,-0.0497686,5.90119e-05,25,47,2
68.6409,0.068257,3.19988e-05,-0.607233,-0.0145282,68.6419,68.643,68.6409,-0.608348,0.0001176,25,48,2
68.6425,0.0649737,1.7372e-05,-0.607182,-0.0042586,68.6428,68.6437,68.6425,-0.608096,0.000146905,25,49,2
68.6394,0.119786,0.000111351,-0.607233,-0.00785122,68.6411,68.6423,68.6396,-0.608612,8.82942e-05,25,50,2
68.6409,0.0695693,0.000103954,-0.607233,0.00549457,68.6419,68.643,68.6409,-0.608348,0.0001176,25,51,2
159.95,0.0517485,5.71599e-05,-0.305416,-0.0140723,159.952,159.952,159.95,-0.305818,0.0001176,25,52,2
159.953,0.0565513,5.34305e-05,-0.305432,-0.00370657,159.954,159.954,159.953,-0.305766,0.000146905,25,53,2
159.947,0.0985201,0.000252426,-0.305381,-0.00645735,159.95,159.951,159.947,-0.305863,8.82942e-05,25,54,2
159.95,0.0531426,0.000253659,-0.305416,0.00719736,159.952,159.952,159.95,-0.305818,0.0001176,25,55,2
68.6334,0.185939,0.000220118,-0.607121,-0.00857147,68.6379,68.638,68.634,-0.607779,0.000118024,25,56,2
68.6338,0.179898,7.2617e-05,-0.607128,-0.00140935,68.6381,68.6382,68.6344,-0.607744,0.000147353,25,57,2
68.637,0.144219,0.000141604,-0.607175,-0.0236115,68.6398,68.64,68.6374,-0.607692,8.84847e-05,25,58,2
68.638,0.146186,4.0385e-05,-0.607198,0.0062467,68.6403,68.6405,68.6383,-0.607732,0.000117798,25,59,2
159.932,0.151067,0.000504635,-0.305332,-0.00684285,159.943,159.943,159.932,-0.3055,0.000118024,25,60,2
159.933,0.145784,0.000164601,-0.305326,-0.000830794,159.943,159.943,159.933,-0.305483,0.000147353,25,61,2
159.941,0.116539,0.000334239,-0.305371,-0.0222262,159.947,159.947,159.941,-0.305516,8.84847e-05,25,62,2
159.943,0.120861,0.000100624,-0.305385,0.00669047,159.948,159.949,159.943,-0.30554,0.000117798,25,63,2
68.638,0.14412,0.000268375,-0.607198,-0.0252743,68.6403,68.6405,68.6383,-0.607732,0.000117798,25,64,2
68.6339,0.178543,0.000486496,-0.607128,-0.0220841,68.6381,68.6382,68.6344,-0.607744,0.000147353,25,65,2
68.637,0.146067,0.000225454,-0.607175,0.00458508,68.6398,68.64,68.6374,-0.607692,8.84847e-05,25,66,2
68.6334,0.185467,0.000367918,-0.607121,-0.0157718,68.6379,68.638,68.634,-0.607779,0.000118024,25,67,2
159.943,0.118954,0.000619684,-0.305385,-0.0224088,159.948,159.949,159.943,-0.30554,0.000117798,25,68,2
159.933,0.144645,0.00113419,-0.305326,-0.0182049,159.943,159.943,159.933,-0.305483,0.000147353,25,69,2
159.941,0.118443,0.000527981,-0.305371,0.00682465,159.947,159.947,159.941,-0.305516,8.84847e-05,25,70,2
159.932,0.150667,0.00085909,-0.305332,-0.0129338,159.943,159.943,159.932,-0.3055,0.000118024,25,71,2
-250.994,0.0206968,-6.91313e-05,-1.61509,-0.0132226,-250.998,-1.61483,-250.994,-250.998,0.000235199,25,72,2
-250.999,0.0404888,-0.000132082,-1.615,-0.00265378,-251.001,-1.61479,-250.999,-251.002,0.00029381,25,73,2
-250.99,0.0584904,-0.000360418,-1.61542,-0.00383366,-250.995,-1.61513,-250.99,-250.996,0.000176588,25,74,2
-250.994,0.0222456,-0.000385002,-1.61509,0.010408,-250.998,-1.61483,-250.994,-250.998,0.000235199,25,75,2
-68.2671,0.0666186,-5.34011e-05,-1.10908,-0.014478,-68.2681,-0.187151,-68.2671,-69.19,0.000235199,25,76,2
-68.2687,0.0642482,-9.62116e-06,-1.10907,-0.00421105,-68.2689,-0.188176,-68.2686,-69.1898,0.00029381,25,77,2
-68.2655,0.117673,-0.000114244,-1.10904,-0.00771272,-68.2673,-0.18565,-68.2656,-69.1906,0.000176588,25,78,2
-68.2671,0.0679385,-8.49359e-05,-1.10908,0.00565871,-68.2681,-0.187151,-68.2671,-69.19,0.000235199,25,79,2
-250.967,0.0853699,-0.00076828,-1.61526,-0.00363028,-250.983,-1.6152,-250.967,-250.983,0.000236048,25,80,2
-250.969,0.0815164,-0.000251528,-1.61526,0.000211149,-250.984,-1.61521,-250.969,-250.984,0.000294706,25,81,2
-250.98,0.0644113,-0.00050846,-1.61511,-0.0195895,-250.99,-1.61505,-250.98,-250.99,0.000176969,25,82,2
-250.984,0.0731724,-0.000152585,-1.61519,0.00754987,-250.992,-1.61512,-250.984,-250.992,0.000235596,25,83,2
-68.2596,0.18247,-0.000232542,-1.10907,-0.00837872,-68.2641,-0.18928,-68.2598,-69.1836,0.000236048,25,84,2
-68.26,0.176503,-8.39835e-05,-1.10907,-0.00132891,-68.2643,-0.189523,-68.2603,-69.1836,0.000294706,25,85,2
-68.2632,0.141466,-0.000126071,-1.10909,-0.0234872,-68.266,-0.190198,-68.2634,-69.1847,0.000176969,25,86,2
-68.2641,0.143672,-2.44806e-05,-1.10907,0.00627913,-68.2665,-0.190119,-68.2643,-69.1853,0.000235596,25,87,2
-250.984,0.0715609,-0.000965727,-1.61519,-0.0170362,-250.992,-1.61512,-250.984,-250.992,0.000235596,25,88,2
-250.969,0.0807914,-0.00175886,-1.61526,-0.0108494,-250.984,-1.61521,-250.969,-250.984,0.000294706,25,89,2
-250.98,0.0664172,-0.000858767,-1.61511,0.0110145,-250.99,-1.61505,-250.98,-250.99,0.000176969,25,90,2
-250.967,0.0851134,-0.00133443,-1.61526,-0.00754379,-250.983,-1.6152,-250.967,-250.983,0.000236048,25,91,2
-68.2642,0.141623,-0.00028198,-1.10907,-0.0249783,-68.2665,-0.190119,-68.2643,-69.1853,0.000235596,25,92,2
-68.2601,0.175167,-0.00046982,-1.10907,-0.0217207,-68.2642,-0.189523,-68.2603,-69.1836,0.000294706,25,93,2
-68.2632,0.143322,-0.000235661,-1.10909,0.00482117,-68.266,-0.190198,-68.2634,-69.1847,0.000176969,25,94,2
-68.2596,0.182003,-0.000350517,-1.10907,-0.0155101,-68.264,-0.18928,-68.2598,-69.1836,0.000236048,25,95,2
308.549,-0.00455791,0.000906948,-0.013506,-0.0119541,308.554,308.554,308.549,-0.0136989,2.93999e-05,25,96,2
308.557,0.029115,1.45747e-06,-0.0136335,-0.00579134,308.557,308.558,308.555,-0.0137952,3.67262e-05,25,97,2
308.542,0.028266,0.00153097,-0.0128175,-0.00562245,308.55,308.55,308.542,-0.0130288,2.20736e-05,25,98,2
308.549,0.00036368,0.000926403,-0.013506,0.0127884,308.554,308.554,308.549,-0.0136989,2.93999e-05,25,99,2
331.449,-0.0134162,0.000354823,-0.00207298,-0.0108686,331.452,331.454,331.447,-0.00225274,2.93999e-05,25,100,2
331.451,0.0211042,0.0014884,-0.00268547,-0.00419788,331.459,331.461,331.45,-0.00283463,3.67262e-05,25,101,2
331.448,0.01406,0.000727967,-0.000459507,-0.0027967,331.451,331.453,331.446,-0.000653444,2.20736e-05,25,102,2
331.449,-0.00823571,0.000798492,-0.00207298,0.0151755,331.452,331.454,331.447,-0.00225274,2.93999e-05,25,103,2
308.517,0.0359949,0.00356448,-0.0131545,-0.00597641,308.535,308.536,308.516,-0.0131663,2.9506e-05,25,104,2
308.518,0.033486,0.00280875,-0.0132484,-0.00338204,308.536,308.537,308.518,-0.0132589,3.68382e-05,25,105,2
308.533,0.0234521,0.00206356,-0.013105,-0.0209028,308.544,308.544,308.532,-0.0131348,2.21212e-05,25,106,2
308.537,0.0388797,0.0013916,-0.0128717,0.0030654,308.547,308.547,308.536,-0.0129068,2.94495e-05,25,107,2
331.415,0.0129139,0.00345463,-0.00185612,-0.00178848,331.434,331.435,331.415,-0.00186352,2.9506e-05,25,108,2
331.417,0.0108128,0.00284684,-0.00189896,-8.4815e-05,331.435,331.436,331.416,-0.0019056,3.68382e-05,25,109,2
331.428,0.00431508,0.00249684,-0.00284395,-0.0173239,331.443,331.443,331.428,-0.00286974,2.21212e-05,25,110,2
331.435,0.0209877,0.00161125,-0.00219544,0.0060028,331.446,331.446,331.435,-0.00222517,2.94495e-05,25,111,2
308.537,0.0347471,0.00254756,-0.0128717,-0.0177107,308.546,308.547,308.536,-0.0129068,2.94495e-05,25,112,2
308.519,0.0322313,0.0043883,-0.0132484,-0.00968995,308.536,308.537,308.518,-0.0132589,3.68382e-05,25,113,2
308.533,0.0296661,0.00254401,-0.013105,0.0103369,308.544,308.544,308.532,-0.0131348,2.21212e-05,25,114,2
308.517,0.035542,0.00403399,-0.0131545,-0.00825317,308.535,308.536,308.516,-0.0131663,2.9506e-05,25,115,2
331.436,0.017093,0.00262759,-0.00219545,-0.0135775,331.445,331.446,331.435,-0.00222517,2.94495e-05,25,116,2
331.417,0.0100222,0.00459986,-0.00189896,-0.00405952,331.435,331.436,331.416,-0.0019056,3.68382e-05,25,117,2
331.429,0.0106162,0.00326926,-0.00284395,0.0143538,331.442,331.443,331.428,-0.00286974,2.21212e-05,25,118,2
331.416,0.0126153,0.00415401,-0.00185612,-0.0032896,331.434,331.435,331.415,-0.00186352,2.9506e-05,25,119,2
228.487,0.0290939,0.000534703,-0.128945,-0.0174507,228.491,228.491,228.487,-0.129211,5.87998e-05,25,120,2
228.493,0.0451192,0.00021644,-0.128994,-0.00897476,228.494,228.494,228.492,-0.129217,7.34525e-05,25,121,2
228.483,0.0707597,0.00106463,-0.128858,-0.014075,228.488,228.489,228.483,-0.129165,4.41471e-05,25,122,2
228.487,0.0335574,0.000780815,-0.128945,0.00498861,228.491,228.491,228.487,-0.129211,5.87998e-05,25,123,2
274.223,0.0112667,0.000607659,-0.0501201,-0.0146207,274.227,274.227,274.223,-0.0503384,5.87998e-05,25,124,2
274.229,0.0359169,0.000276838,-0.0502292,-0.00714431,274.23,274.23,274.229,-0.0504127,7.34525e-05,25,125,2
274.217,0.0478261,0.00125763,-0.0499918,-0.00951319,274.223,274.224,274.217,-0.0502363,4.41471e-05,25,126,2
274.223,0.0160042,0.000929666,-0.0501201,0.00919621,274.226,274.227,274.223,-0.0503384,5.87998e-05,25,127,2
228.463,0.10608,0.00262733,-0.12869,-0.0187272,228.477,228.477,228.462,-0.128752,5.90119e-05,25,128,2
228.464,0.102368,0.00208003,-0.128697,-0.0136207,228.478,228.478,228.464,-0.128755,7.36764e-05,25,129,2
228.475,0.0786459,0.00167005,-0.128813,-0.0310119,228.483,228.484,228.474,-0.128881,4.42423e-05,25,130,2
228.478,0.0894639,0.00115608,-0.128839,-0.00446022,228.485,228.486,228.478,-0.128915,5.88989e-05,25,131,2
274.193,0.068391,0.00312409,-0.0497418,-0.0118725,274.21,274.211,274.193,-0.0497686,5.90119e-05,25,132,2
274.195,0.0653621,0.00247463,-0.0497209,-0.00813203,274.211,274.212,274.195,-0.0497453,7.36764e-05,25,133,2
274.207,0.0487857,0.00201491,-0.0498362,-0.0255316,274.218,274.218,274.207,-0.0498775,4.42423e-05,25,134,2
274.211,0.0619896,0.0014005,-0.0499164,-0.000335173,274.22,274.22,274.211,-0.0499646,5.88989e-05,25,135,2
228.478,0.0843607,0.00185935,-0.128839,-0.0301156,228.485,228.486,228.478,-0.128915,5.88989e-05,25,136,2
228.465,0.0997883,0.0033638,-0.128697,-0.0265908,228.477,228.478,228.464,-0.128755,7.36764e-05,25,137,2
228.475,0.0845271,0.00193436,-0.128813,-0.00144527,228.483,228.484,228.474,-0.128881,4.42423e-05,25,138,2
228.463,0.105172,0.00309133,-0.12869,-0.0232933,228.477,228.477,228.462,-0.128752,5.90119e-05,25,139,2
274.211,0.0573992,0.00221912,-0.0499164,-0.0234127,274.22,274.22,274.211,-0.0499646,5.88989e-05,25,140,2
274.196,0.0634987,0.00402564,-0.0497209,-0.0175,274.211,274.212,274.195,-0.0497453,7.36764e-05,25,141,2
274.208,0.0548426,0.00232096,-0.0498362,0.00491868,274.218,274.218,274.207,-0.0498775,4.42423e-05,25,142,2
274.194,0.0677284,0.00369797,-0.0497418,-0.0152033,274.21,274.211,274.193,-0.0497686,5.90119e-05,25,143,2
68.6409,0.0657767,0.000165771,-0.607233,-0.0233132,68.6419,68.643,68.6409,-0.608348,0.0001176,25,144,2
68.6425,0.0638619,5.09321e-05,-0.607182,-0.0127029,68.6428,68.6437,68.6425,-0.608096,0.000146905,25,145,2
68.6395,0.117737,0.000326465,-0.607233,-0.0234193,68.6411,68.6423,68.6396,-0.608612,8.82942e-05,25,146,2
68.6409,0.0696914,0.000232822,-0.607233,-0.00363305,68.6419,68.643,68.6409,-0.608348,0.0001176,25,147,2
159.95,0.049469,0.000364084,-0.305416,-0.0207064,159.952,159.952,159.95,-0.305818,0.0001176,25,148,2
159.953,0.0555837,0.00015665,-0.305432,-0.0110563,159.954,159.954,159.953,-0.305766,0.000146905,25,149,2
159.947,0.0968344,0.000740076,-0.305381,-0.0192616,159.95,159.951,159.947,-0.305863,8.82942e-05,25,150,2
159.95,0.0536274,0.000547192,-0.305416,0.000199284,159.952,159.952,159.95,-0.305818,0.0001176,25,151,2
68.6335,0.18323,0.000793153,-0.607121,-0.0327681,68.6378,68.638,68.634,-0.607779,0.000118024,25,152,2
68.6339,0.178175,0.000626782,-0.607128,-0.0248787,68.638,68.6382,68.6344,-0.607744,0.000147353,25,153,2
68.6371,0.139903,0.000499012,-0.607175,-0.0422339,68.6397,68.64,68.6374,-0.607692,8.84847e-05,25,154,2
68.638,0.14575,0.000346392,-0.607198,-0.0128878,68.6403,68.6405,68.6383,-0.607732,0.000117798,25,155,2
159.933,0.148881,0.00183397,-0.305332,-0.0265025,159.942,159.943,159.932,-0.3055,0.000118024,25,156,2
159.933,0.144428,0.00145218,-0.305326,-0.0198523,159.943,159.943,159.933,-0.305483,0.000147353,25,157,2
159.941,0.112641,0.00117368,-0.305371,-0.0372474,159.947,159.947,159.941,-0.305516,8.84847e-05,25,158,2
159.943,0.1207,0.000814074,-0.305385,-0.00914232,159.948,159.949,159.943,-0.30554,0.000117798,25,159,2
68.6381,0.139588,0.000558845,-0.607198,-0.0438695,68.6402,68.6405,68.6383,-0.607732,0.000117798,25,160,2
68.6341,0.174133,0.00101246,-0.607128,-0.0451997,68.6379,68.6382,68.6344,-0.607744,0.000147353,25,161,2
68.6371,0.145416,0.000577147,-0.607175,-0.0145198,68.6397,68.64,68.6374,-0.607692,8.84847e-05,25,162,2
68.6336,0.181822,0.000930881,-0.607121,-0.0398452,68.6377,68.638,68.634,-0.607779,0.000118024,25,163,2
159.943,0.115011,0.00129776,-0.305385,-0.0377437,159.948,159.949,159.943,-0.30554,0.000117798,25,164,2
159.934,0.141031,0.00235569,-0.305326,-0.0369291,159.943,159.943,159.933,-0.305483,0.000147353,25,165,2
159.941,0.11832,0.00135422,-0.305371,-0.00869364,159.947,159.947,159.941,-0.305516,8.84847e-05,25,166,2
159.933,0.14769,0.00216427,-0.305332,-0.0324892,159.942,159.943,159.932,-0.3055,0.000118024,25,167,2
-250.994,0.0187938,-0.000518554,-1.61509,-0.0158109,-250.998,-1.61483,-250.994,-250.998,0.000235199,25,168,2
-250.999,0.0397961,-0.000387243,-1.615,-0.00791593,-251.001,-1.61479,-250.999,-251.002,0.00029381,25,169,2
-250.99,0.0574896,-0.00105669,-1.61542,-0.0114354,-250.995,-1.61513,-250.99,-250.996,0.000176588,25,170,2
-250.994,0.0234138,-0.000812898,-1.61509,0.00741534,-250.998,-1.61483,-250.994,-250.998,0.000235199,25,171,2
-68.2671,0.0641589,-0.000188099,-1.10908,-0.0230497,-68.2681,-0.187151,-68.2671,-69.19,0.000235199,25,172,2
-68.2687,0.0631489,-2.82078e-05,-1.10907,-0.0125611,-68.2688,-0.188176,-68.2686,-69.1898,0.00029381,25,173,2
-68.2656,0.11566,-0.000334947,-1.10904,-0.0230062,-68.2672,-0.18565,-68.2656,-69.1906,0.000176588,25,174,2
-68.2671,0.0680958,-0.000217485,-1.10908,-0.00325745,-68.2681,-0.187151,-68.2671,-69.19,0.000235199,25,175,2
-250.968,0.0841657,-0.00281863,-1.61526,-0.0147422,-250.983,-1.6152,-250.967,-250.983,0.000236048,25,176,2
-250.969,0.0808465,-0.00224477,-1.61526,-0.0104307,-250.984,-1.61521,-250.969,-250.984,0.000294706,25,177,2
-250.98,0.0613033,-0.00184104,-1.61511,-0.0278292,-250.99,-1.61505,-250.98,-250.99,0.000176969,25,178,2
-250.984,0.0735318,-0.0012605,-1.61519,-0.00206563,-250.992,-1.61512,-250.984,-250.992,0.000235596,25,179,2
-68.2597,0.179816,-0.000799753,-1.10907,-0.0321242,-68.2639,-0.18928,-68.2598,-69.1836,0.000236048,25,180,2
-68.2601,0.17482,-0.000632064,-1.10907,-0.0243558,-68.2642,-0.189523,-68.2603,-69.1836,0.000294706,25,181,2
-68.2633,0.137191,-0.000479213,-1.10909,-0.0417513,-68.2659,-0.190198,-68.2634,-69.1847,0.000176969,25,182,2
-68.2642,0.143262,-0.000329273,-1.10907,-0.0125275,-68.2665,-0.190119,-68.2643,-69.1853,0.000235596,25,183,2
-250.984,0.068725,-0.00201823,-1.61519,-0.026231,-250.992,-1.61512,-250.984,-250.992,0.000235596,25,184,2
-250.97,0.0786841,-0.00364938,-1.61526,-0.0213019,-250.983,-1.61521,-250.969,-250.984,0.000294706,25,185,2
-250.98,0.0672867,-0.00216747,-1.61511,0.0022511,-250.99,-1.61505,-250.98,-250.99,0.000176969,25,186,2
-250.968,0.0834006,-0.0033462,-1.61526,-0.0185888,-250.983,-1.6152,-250.967,-250.983,0.000236048,25,187,2
-68.2643,0.137151,-0.000569224,-1.10907,-0.0432501,-68.2664,-0.190119,-68.2643,-69.1853,0.000235596,25,188,2
-68.2603,0.170833,-0.000991606,-1.10907,-0.0443987,-68.264,-0.189523,-68.2603,-69.1836,0.000294706,25,189,2
-68.2633,0.142725,-0.000581334,-1.10909,-0.0139273,-68.2659,-0.190198,-68.2634,-69.1847,0.000176969,25,190,2
-68.2598,0.178421,-0.000909688,-1.10907,-0.0391335,-68.2639,-0.18928,-68.2598,-69.1836,0.000236048,25,191,2
308.549,-0.00607925,0.00144987,-0.013506,-0.0112569,308.553,308.554,308.549,-0.0136989,2.93999e-05,25,192,2
308.557,0.02811,2.31848e-06,-0.0136335,-0.00954206,308.557,308.558,308.555,-0.0137952,3.67262e-05,25,193,2
308.543,0.0272903,0.00243542,-0.0128175,-0.00926379,308.549,308.55,308.542,-0.0130288,2.20736e-05,25,194,2
308.549,0.00202979,0.00146657,-0.013506,0.0126315,308.553,308.554,308.549,-0.0136989,2.93999e-05,25,195,2
331.449,-0.0147201,0.000726836,-0.00207298,-0.00902447,331.452,331.454,331.447,-0.00225274,2.93999e-05,25,196,2
331.452,0.0203757,0.00236771,-0.00268547,-0.00691662,331.458,331.461,331.45,-0.00283463,3.67262e-05,25,197,2
331.448,0.0135746,0.00115803,-0.000459507,-0.00460797,331.451,331.453,331.446,-0.000653443,2.20736e-05,25,198,2
331.449,-0.00618446,0.00110782,-0.00207298,0.0161206,331.451,331.454,331.447,-0.00225274,2.93999e-05,25,199,2
308.518,0.0349069,0.00584213,-0.0131545,-0.0106236,308.534,308.536,308.516,-0.0131663,2.9506e-05,25,200,2
308.519,0.0327581,0.00504623,-0.0132484,-0.00772391,308.535,308.537,308.518,-0.0132589,3.68382e-05,25,201,2
308.533,0.0205231,0.00345851,-0.013105,-0.0237851,308.543,308.544,308.532,-0.0131348,2.21212e-05,25,202,2
308.537,0.0389472,0.00263682,-0.0128717,-0.00203564,308.546,308.547,308.536,-0.0129068,2.94495e-05,25,203,2
331.416,0.01257,0.00575151,-0.00185612,-0.00345879,331.433,331.435,331.415,-0.00186352,2.9506e-05,25,204,2
331.418,0.0107092,0.00517031,-0.00189896,-0.00149544,331.434,331.436,331.416,-0.0019056,3.68382e-05,25,205,2
331.429,0.00201695,0.00425463,-0.00284395,-0.0177389,331.442,331.443,331.428,-0.00286974,2.21212e-05,25,206,2
331.436,0.0215917,0.00293514,-0.00219544,0.003212,331.445,331.446,331.435,-0.00222517,2.94495e-05,25,207,2
308.538,0.0321381,0.00362947,-0.0128717,-0.0220945,308.545,308.547,308.536,-0.0129068,2.94495e-05,25,208,2
308.52,0.0306908,0.00640262,-0.0132484,-0.0138141,308.534,308.537,308.518,-0.0132589,3.68382e-05,25,209,2
308.534,0.0307615,0.00387108,-0.013105,0.00637628,308.543,308.544,308.532,-0.0131348,2.21212e-05,25,210,2
308.518,0.0341607,0.0062453,-0.0131545,-0.0128217,308.534,308.536,308.516,-0.0131663,2.9506e-05,25,211,2
331.436,0.0151745,0.00380788,-0.00219544,-0.0156924,331.445,331.446,331.435,-0.00222517,2.94495e-05,25,212,2
331.419,0.00940657,0.00667567,-0.00189896,-0.00533295,331.433,331.436,331.416,-0.0019056,3.68382e-05,25,213,2
331.43,0.0123989,0.00491792,-0.00284395,0.0128454,331.441,331.443,331.428,-0.00286974,2.21212e-05,25,214,2
331.417,0.012078,0.00635209,-0.00185612,-0.00490808,331.432,331.435,331.415,-0.00186352,2.9506e-05,25,215,2
228.488,0.0265673,0.000940674,-0.128945,-0.021099,228.49,228.491,228.487,-0.129211,5.87998e-05,25,216,2
228.493,0.0435617,0.000344306,-0.128994,-0.0147872,228.493,228.494,228.492,-0.129217,7.34525e-05,25,217,2
228.483,0.0683172,0.00169359,-0.128858,-0.0231906,228.488,228.489,228.483,-0.129165,4.41471e-05,25,218,2
228.488,0.0339215,0.00115201,-0.128945,0.000565813,228.49,228.491,228.487,-0.129211,5.87998e-05,25,219,2
274.223,0.0092619,0.00108451,-0.0501201,-0.0159662,274.226,274.227,274.223,-0.0503384,5.87998e-05,25,220,2
274.229,0.0346771,0.000440386,-0.0502292,-0.0117713,274.23,274.23,274.229,-0.0504127,7.34525e-05,25,221,2
274.218,0.0461752,0.0020006,-0.0499918,-0.0156744,274.223,274.224,274.217,-0.0502363,4.41471e-05,25,222,2
274.223,0.0170676,0.00136102,-0.0501201,0.00702858,274.226,274.227,274.223,-0.0503384,5.87998e-05,25,223,2
228.464,0.102728,0.00434931,-0.12869,-0.0324132,228.476,228.477,228.462,-0.128752,5.90119e-05,25,224,2
228.465,0.0997146,0.00377874,-0.128697,-0.0268659,228.477,228.478,228.464,-0.128755,7.36764e-05,25,225,2
228.475,0.0739253,0.0027534,-0.128813,-0.0410119,228.483,228.484,228.474,-0.128881,4.42423e-05,25,226,2
228.478,0.0881163,0.00209648,-0.128839,-0.0160994,228.485,228.486,228.478,-0.128915,5.88989e-05,25,227,2
274.195,0.0662562,0.00517976,-0.0497418,-0.0206978,274.209,274.211,274.193,-0.0497686,5.90119e-05,25,228,2
274.196,0.0637415,0.00450428,-0.0497209,-0.0165939,274.21,274.212,274.195,-0.0497453,7.36764e-05,25,229,2
274.208,0.0450358,0.00331728,-0.0498362,-0.031681,274.217,274.218,274.207,-0.0498775,4.42423e-05,25,230,2
274.212,0.0614155,0.00252751,-0.0499164,-0.00842357,274.22,274.22,274.211,-0.0499646,5.88989e-05,25,231,2
228.479,0.0797081,0.00270039,-0.128839,-0.0408693,228.484,228.486,228.478,-0.128915,5.88989e-05,25,232,2
228.466,0.0954638,0.00488114,-0.128697,-0.0393883,228.476,228.478,228.464,-0.128755,7.36764e-05,25,233,2
228.475,0.0836153,0.00298037,-0.128813,-0.0124659,228.483,228.484,228.474,-0.128881,4.42423e-05,25,234,2
228.464,0.101231,0.00474776,-0.12869,-0.0368217,228.476,228.477,228.462,-0.128752,5.90119e-05,25,235,2
274.212,0.0538521,0.00323048,-0.0499164,-0.0307045,274.219,274.22,274.211,-0.0499646,5.88989e-05,25,236,2
274.197,0.0606713,0.00583616,-0.0497209,-0.0256385,274.209,274.212,274.195,-0.0497453,7.36764e-05,25,237,2
274.208,0.0550154,0.0035801,-0.0498362,-0.0022818,274.217,274.218,274.207,-0.0498775,4.42423e-05,25,238,2
274.195,0.0651646,0.00567256,-0.0497418,-0.0239136,274.209,274.211,274.193,-0.0497686,5.90119e-05,25,239,2
68.641,0.062171,0.000288246,-0.607233,-0.0316994,68.6418,68.643,68.6409,-0.608348,0.0001176,25,240,2
68.6425,0.0616575,8.10213e-05,-0.607182,-0.0209299,68.6427,68.6437,68.6425,-0.608096,0.000146905,25,241,2
68.6396,0.113673,0.000519331,-0.607233,-0.0385867,68.641,68.6423,68.6396,-0.608612,8.82942e-05,25,242,2
68.641,0.0686209,0.000345824,-0.607233,-0.0126985,68.6418,68.643,68.6409,-0.608348,0.0001176,25,243,2
159.95,0.0463431,0.000646196,-0.305416,-0.0269863,159.952,159.952,159.95,-0.305818,0.0001176,25,244,2
159.953,0.053665,0.000249194,-0.305432,-0.0182168,159.954,159.954,159.953,-0.305766,0.000146905,25,245,2
159.947,0.0934919,0.00117729,-0.305381,-0.0317362,159.95,159.951,159.947,-0.305863,8.82942e-05,25,246,2
159.95,0.0531946,0.000803434,-0.305416,-0.00680221,159.952,159.952,159.95,-0.305818,0.0001176,25,247,2
68.6338,0.177385,0.00131214,-0.607121,-0.056404,68.6375,68.638,68.634,-0.607779,0.000118024,25,248,2
68.6342,0.173403,0.00113823,-0.607128,-0.0479224,68.6378,68.6382,68.6344,-0.607744,0.000147353,25,249,2
68.6373,0.133194,0.000822413,-0.607175,-0.0601336,68.6396,68.64,68.6374,-0.607692,8.84847e-05,25,250,2
68.6381,0.142821,0.000628794,-0.607198,-0.0318018,68.6402,68.6405,68.6383,-0.607732,0.000117798,25,251,2
159.933,0.144148,0.00303832,-0.305332,-0.0457086,159.942,159.943,159.932,-0.3055,0.000118024,25,252,2
159.934,0.140601,0.00264079,-0.305326,-0.038534,159.943,159.943,159.933,-0.305483,0.000147353,25,253,2
159.941,0.106815,0.00193314,-0.305371,-0.0516313,159.947,159.947,159.941,-0.305516,8.84847e-05,25,254,2
159.943,0.118475,0.00147205,-0.305385,-0.0248187,159.948,159.949,159.943,-0.30554,0.000117798,25,255,2
68.6383,0.132667,0.000811231,-0.607198,-0.0617141,68.64,68.6405,68.6383,-0.607732,0.000117798,25,256,2
68.6344,0.166744,0.00146942,-0.607128,-0.067542,68.6376,68.6382,68.6344,-0.607744,0.000147353,25,257,2
68.6373,0.142277,0.000889509,-0.607175,-0.0333762,68.6395,68.64,68.6374,-0.607692,8.84847e-05,25,258,2
68.6339,0.175066,0.00143041,-0.607121,-0.0632368,68.6374,68.638,68.634,-0.607779,0.000118024,25,259,2
159.944,0.109101,0.0018874,-0.305385,-0.0524328,159.948,159.949,159.943,-0.30554,0.000117798,25,260,2
159.935,0.135004,0.00341665,-0.305326,-0.0550214,159.942,159.943,159.933,-0.305483,0.000147353,25,261,2
159.941,0.116173,0.00208817,-0.305371,-0.0240632,159.946,159.947,159.941,-0.305516,8.84847e-05,25,262,2
159.933,0.142186,0.00332196,-0.305332,-0.0514887,159.942,159.943,159.932,-0.3055,0.000118024,25,263,2
-250.994,0.0165693,-0.000932637,-1.61509,-0.0181288,-250.997,-1.61483,-250.994,-250.998,0.000235199,25,264,2
-250.999,0.0384224,-0.000616015,-1.615,-0.0130426,-251.001,-1.61479,-250.999,-251.002,0.00029381,25,265,2
-250.99,0.0555052,-0.00168095,-1.61542,-0.0188415,-250.995,-1.61513,-250.99,-250.996,0.000176588,25,266,2
-250.995,0.0241814,-0.0011854,-1.61509,0.00429578,-250.997,-1.61483,-250.994,-250.998,0.000235199,25,267,2
-68.2672,0.0606015,-0.000309978,-1.10908,-0.0312269,-68.268,-0.187151,-68.2671,-69.19,0.000235199,25,268,2
-68.2687,0.0609691,-4.48721e-05,-1.10907,-0.0206962,-68.2688,-0.188176,-68.2686,-69.1898,0.00029381,25,269,2
-68.2657,0.111668,-0.000532824,-1.10904,-0.037906,-68.2671,-0.18565,-68.2656,-69.1906,0.000176588,25,270,2
-68.2672,0.0670881,-0.000335212,-1.10908,-0.0121179,-68.268,-0.187151,-68.2671,-69.19,0.000235199,25,271,2
-250.969,0.0815214,-0.0046769,-1.61526,-0.0256019,-250.982,-1.6152,-250.967,-250.983,0.000236048,25,272,2
-250.97,0.0787934,-0.00408504,-1.61526,-0.020894,-250.983,-1.61521,-250.969,-250.984,0.000294706,25,273,2
-250.981,0.0571464,-0.00304815,-1.61511,-0.0355928,-250.989,-1.61505,-250.98,-250.99,0.000176969,25,274,2
-250.984,0.0726331,-0.00228251,-1.61519,-0.0116458,-250.992,-1.61512,-250.984,-250.992,0.000235596,25,275,2
-68.26,0.174084,-0.00131246,-1.10907,-0.05532,-68.2636,-0.18928,-68.2598,-69.1836,0.000236048,25,276,2
-68.2604,0.170145,-0.00113707,-1.10907,-0.046966,-68.264,-0.189523,-68.2603,-69.1836,0.000294706,25,277,2
-68.2635,0.130567,-0.000799696,-1.10909,-0.0593011,-68.2657,-0.190198,-68.2634,-69.1847,0.000176969,25,278,2
-68.2643,0.140401,-0.000611625,-1.10907,-0.0311198,-68.2663,-0.190119,-68.2643,-69.1853,0.000235596,25,279,2
-250.985,0.0647132,-0.00293319,-1.61519,-0.034977,-250.991,-1.61512,-250.984,-250.992,0.000235596,25,280,2
-250.971,0.0752305,-0.0052912,-1.61526,-0.03139,-250.982,-1.61521,-250.969,-250.984,0.000294706,25,281,2
-250.981,0.0670048,-0.00332847,-1.61511,-0.00655083,-250.989,-1.61505,-250.98,-250.99,0.000176969,25,282,2
-250.969,0.0802608,-0.00512994,-1.61526,-0.0293157,-250.981,-1.6152,-250.967,-250.983,0.000236048,25,283,2
-68.2645,0.130332,-0.000817676,-1.10907,-0.0607819,-68.2662,-0.190119,-68.2643,-69.1853,0.000235596,25,284,2
-68.2606,0.163576,-0.00144582,-1.10907,-0.0663171,-68.2637,-0.189523,-68.2603,-69.1836,0.000294706,25,285,2
-68.2635,0.139686,-0.00088739,-1.10909,-0.0324376,-68.2657,-0.190198,-68.2634,-69.1847,0.000176969,25,286,2
-68.2601,0.171787,-0.00140687,-1.10907,-0.0620874,-68.2636,-0.18928,-68.2598,-69.1836,0.000236048,25,287,2
308.55,-0.00749656,0.00189398,-0.013506,-0.0103671,308.553,308.554,308.549,-0.0136989,2.93999e-05,25,288,2
308.557,0.026624,3.02151e-06,-0.0136335,-0.0131295,308.557,308.558,308.555,-0.0137952,3.67262e-05,25,289,2
308.544,0.0258476,0.0031739,-0.0128175,-0.0127466,308.549,308.55,308.542,-0.0130288,2.20736e-05,25,290,2
308.55,0.00366117,0.0019068,-0.013506,0.0122585,308.553,308.554,308.549,-0.0136989,2.93999e-05,25,291,2
331.449,-0.0157721,0.00104932,-0.00207298,-0.00702591,331.451,331.454,331.447,-0.00225274,2.93999e-05,25,292,2
331.453,0.0192986,0.00308566,-0.00268547,-0.00951701,331.457,331.461,331.45,-0.00283463,3.67262e-05,25,293,2
331.448,0.012857,0.00150917,-0.000459507,-0.00634039,331.451,331.453,331.446,-0.000653444,2.20736e-05,25,294,2
331.45,-0.00402739,0.00134166,-0.00207298,0.0167899,331.451,331.454,331.447,-0.00225274,2.93999e-05,25,295,2
308.52,0.0332216,0.00772164,-0.0131545,-0.0150889,308.532,308.536,308.516,-0.0131663,2.9506e-05,25,296,2
308.521,0.0314697,0.00693982,-0.0132484,-0.0119336,308.534,308.537,308.518,-0.0132589,3.68382e-05,25,297,2
308.535,0.017243,0.00461777,-0.013105,-0.0262604,308.542,308.544,308.532,-0.0131348,2.21212e-05,25,298,2
308.538,0.0383483,0.00370235,-0.0128717,-0.00710185,308.545,308.547,308.536,-0.0129068,2.94495e-05,25,299,2
331.418,0.012011,0.00765644,-0.00185612,-0.00506991,331.431,331.435,331.415,-0.00186352,2.9506e-05,25,300,2
331.419,0.0104224,0.00714144,-0.00189896,-0.00288048,331.433,331.436,331.416,-0.0019056,3.68382e-05,25,301,2
331.431,-0.000315693,0.00572246,-0.00284395,-0.0178504,331.44,331.443,331.428,-0.00286974,2.21212e-05,25,302,2
331.437,0.0218262,0.004059,-0.00219544,0.00036624,331.444,331.446,331.435,-0.00222517,2.94495e-05,25,303,2
308.539,0.0289792,0.00446404,-0.0128717,-0.0261004,308.544,308.547,308.536,-0.0129068,2.94495e-05,25,304,2
308.522,0.0286251,0.00798062,-0.0132484,-0.0177018,308.532,308.537,308.518,-0.0132589,3.68382e-05,25,305,2
308.535,0.0313306,0.00493434,-0.013105,0.00230655,308.542,308.544,308.532,-0.0131348,2.21212e-05,25,306,2
308.52,0.0321949,0.00803101,-0.0131545,-0.0171709,308.532,308.536,308.516,-0.0131663,2.9506e-05,25,307,2
331.438,0.0129964,0.00472868,-0.00219545,-0.0175389,331.443,331.446,331.435,-0.00222517,2.94495e-05,25,308,2
331.421,0.00863,0.00829654,-0.00189896,-0.00651513,331.431,331.436,331.416,-0.0019056,3.68382e-05,25,309,2
331.431,0.0139695,0.00623143,-0.00284395,0.0111171,331.44,331.443,331.428,-0.00286974,2.21212e-05,25,310,2
331.419,0.0113341,0.00811728,-0.00185612,-0.00644259,331.43,331.435,331.415,-0.00186352,2.9506e-05,25,311,2
228.488,0.023586,0.00128254,-0.128945,-0.0243862,228.49,228.491,228.487,-0.129211,5.87998e-05,25,312,2
228.493,0.0412589,0.000448709,-0.128994,-0.0203467,228.493,228.494,228.492,-0.129217,7.34525e-05,25,313,2
228.484,0.0647057,0.00220712,-0.128858,-0.0319093,228.487,228.489,228.483,-0.129165,4.41471e-05,25,314,2
228.488,0.0337051,0.00144471,-0.128945,-0.00386667,228.49,228.491,228.487,-0.129211,5.87998e-05,25,315,2
274.223,0.00709865,0.00148745,-0.0501201,-0.0170386,274.226,274.227,274.223,-0.0503384,5.87998e-05,25,316,2
274.229,0.0328439,0.000573923,-0.0502292,-0.0161968,274.23,274.23,274.229,-0.0504127,7.34525e-05,25,317,2
274.218,0.0437342,0.00260724,-0.0499918,-0.0215673,274.222,274.224,274.217,-0.0502363,4.41471e-05,25,318,2
274.224,0.017839,0.00169963,-0.0501201,0.00474068,274.226,274.227,274.223,-0.0503384,5.87998e-05,25,319,2
228.465,0.0976183,0.00577489,-0.12869,-0.0455446,228.475,228.477,228.462,-0.128752,5.90119e-05,25,320,2
228.466,0.0953548,0.00521993,-0.128697,-0.0396514,228.476,228.478,228.464,-0.128755,7.36764e-05,25,321,2
228.476,0.0679397,0.00364912,-0.128813,-0.0503102,228.482,228.484,228.474,-0.128881,4.42423e-05,25,322,2
228.479,0.0852611,0.002894,-0.128839,-0.0274632,228.484,228.486,228.478,-0.128915,5.88989e-05,25,323,2
274.196,0.0629878,0.00688244,-0.0497418,-0.0291689,274.207,274.211,274.193,-0.0497686,5.90119e-05,25,324,2
274.197,0.0610302,0.00622697,-0.0497209,-0.0247719,274.209,274.212,274.195,-0.0497453,7.36764e-05,25,325,2
274.209,0.0405153,0.00439358,-0.0498362,-0.0372883,274.216,274.218,274.207,-0.0498775,4.42423e-05,25,326,2
274.212,0.0597906,0.00348228,-0.0499164,-0.0163678,274.219,274.22,274.211,-0.0499646,5.88989e-05,25,327,2
228.479,0.0736917,0.0033574,-0.128839,-0.0509236,228.484,228.486,228.478,-0.128915,5.88989e-05,25,328,2
228.467,0.0895059,0.00606584,-0.128697,-0.0515118,228.475,228.478,228.464,-0.128755,7.36764e-05,25,329,2
228.476,0.0812728,0.00382328,-0.128813,-0.0232732,228.482,228.484,228.474,-0.128881,4.42423e-05,25,330,2
228.466,0.0955592,0.00608063,-0.12869,-0.04972,228.474,228.477,228.462,-0.128752,5.90119e-05,25,331,2
274.213,0.0493837,0.00402168,-0.0499164,-0.037471,274.218,274.22,274.211,-0.0499646,5.88989e-05,25,332,2
274.199,0.0568057,0.00724896,-0.0497209,-0.0333384,274.208,274.212,274.195,-0.0497453,7.36764e-05,25,333,2
274.209,0.0542469,0.00459525,-0.0498362,-0.00944324,274.216,274.218,274.207,-0.0498775,4.42423e-05,25,334,2
274.197,0.0614857,0.00726058,-0.0497418,-0.0322147,274.207,274.211,274.193,-0.0497686,5.90119e-05,25,335,2
68.6411,0.0575015,0.000391078,-0.607233,-0.0395431,68.6417,68.643,68.6409,-0.608348,0.0001176,25,336,2
68.6425,0.0583981,0.000105589,-0.607182,-0.0287988,68.6427,68.6437,68.6425,-0.608096,0.000146905,25,337,2
68.6398,0.107664,0.000676805,-0.607233,-0.0530939,68.6408,68.6423,68.6396,-0.608612,8.82942e-05,25,338,2
68.6411,0.0663764,0.000435259,-0.607233,-0.0215467,68.6417,68.643,68.6409,-0.608348,0.0001176,25,339,2
159.95,0.0424242,0.00088427,-0.305416,-0.0328044,159.952,159.952,159.95,-0.305818,0.0001176,25,340,2
159.953,0.0508281,0.000324757,-0.305432,-0.0250657,159.954,159.954,159.953,-0.305766,0.000146905,25,341,2
159.947,0.0885496,0.00153427,-0.305381,-0.0436678,159.95,159.951,159.947,-0.305863,8.82942e-05,25,342,2
159.95,0.0518517,0.00100492,-0.305416,-0.0136873,159.952,159.952,159.95,-0.305818,0.0001176,25,343,2
68.6342,0.168505,0.0017417,-0.607121,-0.0790749,68.6371,68.638,68.634,-0.607779,0.000118024,25,344,2
68.6345,0.165665,0.00157211,-0.607128,-0.0701461,68.6374,68.6382,68.6344,-0.607744,0.000147353,25,345,2
68.6375,0.124205,0.00108977,-0.607175,-0.0770045,68.6393,68.64,68.6374,-0.607692,8.84847e-05,25,346,2
68.6383,0.137449,0.000868344,-0.607198,-0.0501717,68.64,68.6405,68.6383,-0.607732,0.000117798,25,347,2
159.934,0.136949,0.00403562,-0.305332,-0.0641327,159.941,159.943,159.932,-0.3055,0.000118024,25,348,2
159.935,0.134369,0.00364943,-0.305326,-0.0565565,159.942,159.943,159.933,-0.305483,0.000147353,25,349,2
159.942,0.0991623,0.00256086,-0.305371,-0.0651318,159.946,159.947,159.941,-0.305516,8.84847e-05,25,350,2
159.944,0.114221,0.0020297,-0.305385,-0.0400704,159.948,159.949,159.943,-0.30554,0.000117798,25,351,2
68.6385,0.123477,0.00100833,-0.607198,-0.0785027,68.6398,68.6405,68.6383,-0.607732,0.000117798,25,352,2
68.6348,0.156501,0.00182624,-0.607128,-0.0887285,68.6371,68.6382,68.6344,-0.607744,0.000147353,25,353,2
68.6376,0.136703,0.00114125,-0.607175,-0.0516615,68.6392,68.64,68.6374,-0.607692,8.84847e-05,25,354,2
68.6343,0.165314,0.00183245,-0.607121,-0.0855465,68.637,68.638,68.634,-0.607779,0.000118024,25,355,2
159.944,0.101324,0.00234841,-0.305385,-0.0662247,159.947,159.949,159.943,-0.30554,0.000117798,25,356,2
159.936,0.126668,0.00424478,-0.305326,-0.0721723,159.941,159.943,159.933,-0.305483,0.000147353,25,357,2
159.942,0.112039,0.00267982,-0.305371,-0.039021,159.946,159.947,159.941,-0.305516,8.84847e-05,25,358,2
159.934,0.134249,0.00425326,-0.305332,-0.0696073,159.941,159.943,159.932,-0.3055,0.000118024,25,359,2
-250.995,0.0140612,-0.00128316,-1.61509,-0.0201364,-250.997,-1.61483,-250.994,-250.998,0.000235199,25,360,2
-251,0.0363913,-0.000802807,-1.615,-0.0179462,-251.001,-1.61479,-250.999,-251.002,0.00029381,25,361,2
-250.991,0.052571,-0.00219066,-1.61542,-0.0259252,-250.994,-1.61513,-250.99,-250.996,0.000176588,25,362,2
-250.995,0.0245352,-0.00147711,-1.61509,0.00110273,-250.997,-1.61483,-250.994,-250.998,0.000235199,25,363,2
-68.2672,0.0560071,-0.000410733,-1.10908,-0.0388698,-68.2679,-0.187151,-68.2671,-69.19,0.000235199,25,364,2
-68.2687,0.0577461,-5.84785e-05,-1.10907,-0.0284772,-68.2688,-0.188176,-68.2686,-69.1898,0.00029381,25,365,2
-68.2659,0.105765,-0.00069439,-1.10904,-0.0521573,-68.2669,-0.18565,-68.2656,-69.1906,0.000176588,25,366,2
-68.2673,0.0649324,-0.000430095,-1.10908,-0.020771,-68.2679,-0.187151,-68.2671,-69.19,0.000235199,25,367,2
-250.97,0.0774823,-0.00621645,-1.61526,-0.0360236,-250.98,-1.6152,-250.967,-250.983,0.000236048,25,368,2
-250.971,0.0753921,-0.00564692,-1.61526,-0.0309999,-250.982,-1.61521,-250.969,-250.984,0.000294706,25,369,2
-250.982,0.0520117,-0.00404754,-1.61511,-0.0427474,-250.988,-1.61505,-250.98,-250.99,0.000176969,25,370,2
-250.985,0.0704917,-0.00314897,-1.61519,-0.0210267,-250.991,-1.61512,-250.984,-250.992,0.000235596,25,371,2
-68.2604,0.165374,-0.00173573,-1.10907,-0.0775693,-68.2632,-0.18928,-68.2598,-69.1836,0.000236048,25,372,2
-68.2607,0.162559,-0.00156459,-1.10907,-0.0687726,-68.2636,-0.189523,-68.2603,-69.1836,0.000294706,25,373,2
-68.2637,0.12171,-0.00106568,-1.10909,-0.0758362,-68.2655,-0.190198,-68.2634,-69.1847,0.000176969,25,374,2
-68.2645,0.135138,-0.000852297,-1.10907,-0.0491795,-68.2661,-0.190119,-68.2643,-69.1853,0.000235596,25,375,2
-250.986,0.0595942,-0.00364825,-1.61519,-0.0431246,-250.99,-1.61512,-250.984,-250.992,0.000235596,25,376,2
-250.972,0.0704897,-0.00657244,-1.61526,-0.040941,-250.981,-1.61521,-250.969,-250.984,0.000294706,25,377,2
-250.982,0.0655766,-0.00426263,-1.61511,-0.0152407,-250.988,-1.61505,-250.98,-250.99,0.000176969,25,378,2
-250.971,0.0757477,-0.00656408,-1.61526,-0.039541,-250.98,-1.6152,-250.967,-250.983,0.000236048,25,379,2
-68.2647,0.121284,-0.00101041,-1.10907,-0.0772736,-68.2659,-0.190119,-68.2643,-69.1853,0.000235596,25,380,2
-68.261,0.153521,-0.0018015,-1.10907,-0.0871007,-68.2633,-0.189523,-68.2603,-69.1836,0.000294706,25,381,2
-68.2638,0.134257,-0.00113297,-1.10909,-0.0503927,-68.2654,-0.190198,-68.2634,-69.1847,0.000176969,25,382,2
-68.2605,0.162213,-0.00180817,-1.10907,-0.0839789,-68.2631,-0.18928,-68.2598,-69.1836,0.000236048,25,383,2
308.55,-0.00878561,0.00220902,-0.013506,-0.00929993,308.552,308.554,308.549,-0.0136989,2.93999e-05,25,384,2
308.557,0.0246825,3.51859e-06,-0.0136335,-0.0164923,308.557,308.558,308.555,-0.0137952,3.67262e-05,25,385,2
308.545,0.0239627,0.00369609,-0.0128175,-0.0160114,308.548,308.55,308.542,-0.0130288,2.20736e-05,25,386,2
308.55,0.00522991,0.00221708,-0.013506,0.0116758,308.552,308.554,308.549,-0.0136989,2.93999e-05,25,387,2
331.45,-0.0165542,0.00130029,-0.00207298,-0.00490714,331.451,331.454,331.447,-0.00225274,2.93999e-05,25,388,2
331.454,0.0178913,0.00359332,-0.00268547,-0.0119546,331.457,331.461,331.45,-0.00283463,3.67262e-05,25,389,2
331.449,0.0119195,0.00175747,-0.000459507,-0.00796433,331.45,331.453,331.446,-0.000653443,2.20736e-05,25,390,2
331.45,-0.00180141,0.00148406,-0.00207298,0.017172,331.451,331.454,331.447,-0.00225274,2.93999e-05,25,391,2
308.522,0.0309679,0.00907493,-0.0131545,-0.0192961,308.53,308.536,308.516,-0.0131663,2.9506e-05,25,392,2
308.523,0.0296428,0.00836047,-0.0132484,-0.0159391,308.532,308.537,308.518,-0.0132589,3.68382e-05,25,393,2
308.536,0.0136678,0.00546233,-0.013105,-0.0282864,308.541,308.544,308.532,-0.0131348,2.21212e-05,25,394,2
308.539,0.0370932,0.00451557,-0.0128717,-0.0120465,308.544,308.547,308.536,-0.0129068,2.94495e-05,25,395,2
331.42,0.0112465,0.0090396,-0.00185612,-0.00659428,331.429,331.435,331.415,-0.00186352,2.9506e-05,25,396,2
331.421,0.00995727,0.00862589,-0.00189896,-0.00421624,331.431,331.436,331.416,-0.0019056,3.68382e-05,25,397,2
331.432,-0.00264294,0.00680033,-0.00284395,-0.0176565,331.439,331.443,331.428,-0.00286974,2.21212e-05,25,398,2
331.438,0.0216873,0.00490625,-0.00219544,-0.00248579,331.443,331.446,331.435,-0.00222517,2.94495e-05,25,399,2
308.54,0.0253245,0.00499439,-0.0128717,-0.0296596,308.543,308.547,308.536,-0.0129068,2.94495e-05,25,400,2
308.525,0.0260697,0.00901474,-0.0132484,-0.0212867,308.53,308.537,308.518,-0.0132589,3.68382e-05,25,401,2
308.536,0.0313636,0.00566134,-0.013105,-0.00180265,308.54,308.544,308.532,-0.0131348,2.21212e-05,25,402,2
308.522,0.0296782,0.00926941,-0.0131545,-0.0212263,308.53,308.536,308.516,-0.0131663,2.9506e-05,25,403,2
331.439,0.0105959,0.00532722,-0.00219544,-0.0190852,331.442,331.446,331.435,-0.00222517,2.94495e-05,25,404,2
331.423,0.00770578,0.00935202,-0.00189896,-0.00758583,331.429,331.436,331.416,-0.0019056,3.68382e-05,25,405,2
331.433,0.015301,0.00712027,-0.00284395,0.00919859,331.438,331.443,331.428,-0.00286974,2.21212e-05,25,406,2
331.421,0.0103962,0.00932929,-0.00185612,-0.00786686,331.428,331.435,331.415,-0.00186352,2.9506e-05,25,407,2
228.488,0.0202012,0.001537,-0.128945,-0.0272561,228.49,228.491,228.487,-0.129211,5.87998e-05,25,408,2
228.493,0.0382502,0.000522532,-0.128994,-0.025558,228.493,228.494,228.492,-0.129217,7.34525e-05,25,409,2
228.484,0.0599872,0.00257025,-0.128858,-0.0400821,228.487,228.489,228.483,-0.129165,4.41471e-05,25,410,2
228.488,0.0329121,0.00163894,-0.128945,-0.00823299,228.49,228.491,228.487,-0.129211,5.87998e-05,25,411,2
274.224,0.00481394,0.00178903,-0.0501201,-0.0178193,274.226,274.227,274.223,-0.0503384,5.87998e-05,25,412,2
274.229,0.0304488,0.000668347,-0.0502292,-0.0203453,274.23,274.23,274.229,-0.0504127,7.34525e-05,25,413,2
274.219,0.040545,0.00303619,-0.0499918,-0.0270913,274.222,274.224,274.217,-0.0502363,4.41471e-05,25,414,2
274.224,0.0183051,0.00192241,-0.0501201,0.00237167,274.225,274.227,274.223,-0.0503384,5.87998e-05,25,415,2
228.467,0.0908384,0.00680693,-0.12869,-0.0578967,228.473,228.477,228.462,-0.128752,5.90119e-05,25,416,2
228.468,0.0893635,0.0063054,-0.128697,-0.0517585,228.474,228.478,228.464,-0.128755,7.36764e-05,25,417,2
228.477,0.0607916,0.00429616,-0.128813,-0.0587477,228.481,228.484,228.474,-0.128881,4.42423e-05,25,418,2
228.48,0.080947,0.0034943,-0.128839,-0.038357,228.483,228.486,228.478,-0.128915,5.88989e-05,25,419,2
274.198,0.0586416,0.0081161,-0.0497418,-0.0371409,274.205,274.211,274.193,-0.0497686,5.90119e-05,25,420,2
274.199,0.0572747,0.0075253,-0.0497209,-0.032526,274.207,274.212,274.195,-0.0497453,7.36764e-05,25,421,2
274.21,0.0353016,0.00517047,-0.0498362,-0.0422576,274.215,274.218,274.207,-0.0498775,4.42423e-05,25,422,2
274.213,0.0571426,0.00419973,-0.0499164,-0.024032,274.218,274.22,274.211,-0.0499646,5.88989e-05,25,423,2
228.48,0.0664143,0.0037856,-0.128839,-0.0601066,228.483,228.486,228.478,-0.128915,5.88989e-05,25,424,2
228.469,0.0820165,0.00683716,-0.128697,-0.062754,228.473,228.478,228.464,-0.128755,7.36764e-05,25,425,2
228.477,0.0775398,0.00440564,-0.128813,-0.0336824,228.481,228.484,228.474,-0.128881,4.42423e-05,25,426,2
228.467,0.0882519,0.00699912,-0.12869,-0.0617676,228.473,228.477,228.462,-0.128752,5.90119e-05,25,427,2
274.214,0.0440703,0.00453881,-0.0499164,-0.0435963,274.217,274.22,274.211,-0.0499646,5.88989e-05,25,428,2
274.201,0.0519682,0.00816775,-0.0497209,-0.0404678,274.206,274.212,274.195,-0.0497453,7.36764e-05,25,429,2
274.211,0.0525503,0.00529725,-0.0498362,-0.0164431,274.215,274.218,274.207,-0.0498775,4.42423e-05,25,430,2
274.199,0.0567549,0.0083538,-0.0497418,-0.0399646,274.205,274.211,274.193,-0.0497686,5.90119e-05,25,431,2
68.6412,0.0518482,0.000467258,-0.607233,-0.0467103,68.6416,68.643,68.6409,-0.608348,0.0001176,25,432,2
68.6426,0.0541395,0.000122961,-0.607182,-0.0361749,68.6427,68.6437,68.6425,-0.608096,0.000146905,25,433,2
68.64,0.0998125,0.000788156,-0.607233,-0.0666926,68.6406,68.6423,68.6396,-0.608612,8.82942e-05,25,434,2
68.6412,0.0629961,0.000495031,-0.607233,-0.0300262,68.6416,68.643,68.6409,-0.608348,0.0001176,25,435,2
159.95,0.0377794,0.00106208,-0.305416,-0.0380612,159.951,159.952,159.95,-0.305818,0.0001176,25,436,2
159.954,0.0471216,0.000378187,-0.305432,-0.0314856,159.954,159.954,159.953,-0.305766,0.000146905,25,437,2
159.948,0.0820923,0.0017867,-0.305381,-0.0548523,159.949,159.951,159.947,-0.305863,8.82942e-05,25,438,2
159.951,0.0496215,0.00113793,-0.305416,-0.0203382,159.951,159.952,159.95,-0.305818,0.0001176,25,439,2
68.6347,0.156742,0.00205257,-0.607121,-0.100393,68.6366,68.638,68.634,-0.607779,0.000118024,25,440,2
68.635,0.155092,0.00189886,-0.607128,-0.0911696,68.637,68.6382,68.6344,-0.607744,0.000147353,25,441,2
68.6378,0.113092,0.00128286,-0.607175,-0.0925577,68.639,68.64,68.6374,-0.607692,8.84847e-05,25,442,2
68.6386,0.129724,0.00104872,-0.607198,-0.0676831,68.6397,68.6405,68.6383,-0.607732,0.000117798,25,443,2
159.935,0.127406,0.00475789,-0.305332,-0.0814594,159.94,159.943,159.932,-0.3055,0.000118024,25,444,2
159.936,0.125837,0.00440938,-0.305326,-0.0736113,159.941,159.943,159.933,-0.305483,0.000147353,25,445,2
159.943,0.0898125,0.00301405,-0.305371,-0.0775179,159.945,159.947,159.941,-0.305516,8.84847e-05,25,446,2
159.944,0.108014,0.00244904,-0.305385,-0.0546365,159.947,159.949,159.943,-0.30554,0.000117798,25,447,2
68.6388,0.112174,0.00113672,-0.607198,-0.0939481,68.6395,68.6405,68.6383,-0.607732,0.000117798,25,448,2
68.6354,0.143581,0.00205861,-0.607128,-0.108397,68.6366,68.6382,68.6344,-0.607744,0.000147353,25,449,2
68.6379,0.128791,0.00131522,-0.607175,-0.0690629,68.6389,68.64,68.6374,-0.607692,8.84847e-05,25,450,2
68.6349,0.152733,0.00210962,-0.607121,-0.106392,68.6364,68.638,68.634,-0.607779,0.000118024,25,451,2
159.945,0.0918127,0.00264939,-0.305385,-0.0788835,159.946,159.949,159.943,-0.30554,0.000117798,25,452,2
159.937,0.116164,0.00478363,-0.305326,-0.0880883,159.94,159.943,159.933,-0.305483,0.000147353,25,453,2
159.943,0.105987,0.00308884,-0.305371,-0.0533112,159.945,159.947,159.941,-0.305516,8.84847e-05,25,454,2
159.936,0.124015,0.00489471,-0.305332,-0.0865348,159.939,159.943,159.932,-0.3055,0.000118024,25,455,2
-250.995,0.0113126,-0.00154624,-1.61509,-0.0217995,-250.997,-1.61483,-250.994,-250.998,0.000235199,25,456,2
-251,0.0337375,-0.000934888,-1.615,-0.0225427,-251.001,-1.61479,-250.999,-251.002,0.00029381,25,457,2
-250.992,0.0487373,-0.00255108,-1.61542,-0.0325653,-250.994,-1.61513,-250.99,-250.996,0.000176588,25,458,2
-250.995,0.0244692,-0.00166817,-1.61509,-0.00210919,-250.996,-1.61483,-250.994,-250.998,0.000235199,25,459,2
-68.2674,0.0504544,-0.000483496,-1.10908,-0.0458477,-68.2678,-0.187151,-68.2671,-69.19,0.000235199,25,460,2
-68.2688,0.0535351,-6.80997e-05,-1.10907,-0.035771,-68.2688,-0.188176,-68.2686,-69.1898,0.00029381,25,461,2
-68.2661,0.0980518,-0.000808635,-1.10904,-0.0655161,-68.2667,-0.18565,-68.2656,-69.1906,0.000176588,25,462,2
-68.2674,0.0616658,-0.000495668,-1.10908,-0.0290686,-68.2678,-0.187151,-68.2671,-69.19,0.000235199,25,463,2
-250.972,0.0721174,-0.00733236,-1.61526,-0.0458289,-250.979,-1.6152,-250.967,-250.983,0.000236048,25,464,2
-250.973,0.0707008,-0.00682397,-1.61526,-0.0405753,-250.98,-1.61521,-250.969,-250.984,0.000294706,25,465,2
-250.983,0.0459871,-0.00477109,-1.61511,-0.0491706,-250.987,-1.61505,-250.98,-250.99,0.000176969,25,466,2
-250.986,0.0671441,-0.00380084,-1.61519,-0.0300478,-250.99,-1.61512,-250.984,-250.992,0.000235596,25,467,2
-68.2609,0.153834,-0.00204071,-1.10907,-0.0984913,-68.2627,-0.18928,-68.2598,-69.1836,0.000236048,25,468,2
-68.2612,0.152192,-0.00188548,-1.10907,-0.0894024,-68.2631,-0.189523,-68.2603,-69.1836,0.000294706,25,469,2
-68.264,0.11077,-0.00125904,-1.10909,-0.0910737,-68.2652,-0.190198,-68.2634,-69.1847,0.000176969,25,470,2
-68.2647,0.127563,-0.00103489,-1.10907,-0.0663979,-68.2659,-0.190119,-68.2643,-69.1853,0.000235596,25,471,2
-250.987,0.0534555,-0.0041147,-1.61519,-0.0505342,-250.989,-1.61512,-250.984,-250.992,0.000235596,25,472,2
-250.974,0.0645427,-0.00740577,-1.61526,-0.0497915,-250.979,-1.61521,-250.969,-250.984,0.000294706,25,473,2
-250.983,0.0630262,-0.0049063,-1.61511,-0.0236697,-250.987,-1.61505,-250.98,-250.99,0.000176969,25,474,2
-250.972,0.0699385,-0.00755088,-1.61526,-0.0490898,-250.978,-1.6152,-250.967,-250.983,0.000236048,25,475,2
-68.265,0.11016,-0.00113428,-1.10907,-0.0924432,-68.2656,-0.190119,-68.2643,-69.1853,0.000235596,25,476,2
-68.2615,0.140838,-0.00203441,-1.10907,-0.106394,-68.2628,-0.189523,-68.2603,-69.1836,0.000294706,25,477,2
-68.2641,0.126531,-0.00130134,-1.10909,-0.0674857,-68.2651,-0.190198,-68.2634,-69.1847,0.000176969,25,478,2
-68.261,0.149864,-0.00208625,-1.10907,-0.104434,-68.2626,-0.18928,-68.2598,-69.1836,0.000236048,25,479,2
308.551,-0.00992433,0.00237352,-0.013506,-0.00807361,308.552,308.554,308.549,-0.0136989,2.93999e-05,25,480,2
308.557,0.0223187,3.7759e-06,-0.0136335,-0.019573,308.557,308.558,308.555,-0.0137952,3.67262e-05,25,481,2
308.546,0.0216678,0.00396639,-0.0128175,-0.0190022,308.547,308.55,308.542,-0.0130288,2.20736e-05,25,482,2
308.551,0.00670916,0.00237627,-0.013506,0.0108932,308.552,308.554,308.549,-0.0136989,2.93999e-05,25,483,2
331.45,-0.0170531,0.00146265,-0.00207298,-0.0027044,331.451,331.454,331.447,-0.00225274,2.93999e-05,25,484,2
331.455,0.0161778,0.00385611,-0.00268547,-0.0141876,331.456,331.461,331.45,-0.00283463,3.67262e-05,25,485,2
331.449,0.0107779,0.001886,-0.000459507,-0.00945199,331.45,331.453,331.446,-0.000653443,2.20736e-05,25,486,2
331.45,0.000455391,0.00152533,-0.00207298,0.0172602,331.45,331.454,331.447,-0.00225274,2.93999e-05,25,487,2
308.524,0.0281843,0.00980979,-0.0131545,-0.0231732,308.528,308.536,308.516,-0.0131663,2.9506e-05,25,488,2
308.525,0.0273087,0.00921137,-0.0132484,-0.019672,308.529,308.537,308.518,-0.0132589,3.68382e-05,25,489,2
308.537,0.00985873,0.00593464,-0.013105,-0.0298284,308.539,308.544,308.532,-0.0131348,2.21212e-05,25,490,2
308.54,0.0352035,0.00502106,-0.0128717,-0.0167851,308.543,308.547,308.536,-0.0129068,2.94495e-05,25,491,2
331.423,0.0102895,0.00980672,-0.00185612,-0.00800583,331.426,331.435,331.415,-0.00186351,2.9506e-05,25,492,2
331.424,0.00932175,0.0095225,-0.00189896,-0.00547985,331.428,331.436,331.416,-0.0019056,3.68382e-05,25,493,2
331.434,-0.00492496,0.00741476,-0.00284395,-0.0171604,331.437,331.443,331.428,-0.00286974,2.21212e-05,25,494,2
331.439,0.0211773,0.00541914,-0.00219544,-0.00529528,331.442,331.446,331.435,-0.00222517,2.94495e-05,25,495,2
308.542,0.0212365,0.00518438,-0.0128717,-0.0327114,308.542,308.547,308.536,-0.0129068,2.94495e-05,25,496,2
308.527,0.0230682,0.00943453,-0.0132484,-0.0245074,308.528,308.537,308.518,-0.0132589,3.68382e-05,25,497,2
308.538,0.03086,0.00600252,-0.013105,-0.005881,308.539,308.544,308.532,-0.0131348,2.21212e-05,25,498,2
308.525,0.0266537,0.00987612,-0.0131545,-0.0249185,308.527,308.536,308.516,-0.0131663,2.9506e-05,25,499,2
331.44,0.00801417,0.00556273,-0.00219545,-0.020305,331.441,331.446,331.435,-0.00222517,2.94495e-05,25,500,2
331.426,0.0066497,0.00977017,-0.00189896,-0.00852674,331.426,331.436,331.416,-0.0019056,3.68382e-05,25,501,2
331.435,0.0163708,0.00752389,-0.00284395,0.00712271,331.436,331.443,331.428,-0.00286974,2.21212e-05,25,502,2
331.424,0.00928039,0.00990553,-0.00185612,-0.00915653,331.426,331.435,331.415,-0.00186352,2.9506e-05,25,503,2
228.489,0.0164707,0.00168672,-0.128945,-0.0296598,228.489,228.491,228.487,-0.129211,5.87998e-05,25,504,2
228.493,0.034587,0.000560746,-0.128994,-0.030332,228.493,228.494,228.492,-0.129217,7.34525e-05,25,505,2
228.485,0.0542422,0.00275822,-0.128858,-0.0475691,228.486,228.489,228.483,-0.129165,4.41471e-05,25,506,2
228.489,0.0315559,0.00172149,-0.128945,-0.0124584,228.489,228.491,228.487,-0.129211,5.87998e-05,25,507,2
274.224,0.00244686,0.00196868,-0.0501201,-0.0182952,274.225,274.227,274.223,-0.0503384,5.87998e-05,25,508,2
274.229,0.0275328,0.000717225,-0.0502292,-0.0241456,274.229,274.23,274.229,-0.0504127,7.34525e-05,25,509,2
274.22,0.036662,0.00325824,-0.0499918,-0.0321517,274.221,274.224,274.217,-0.0502363,4.41471e-05,25,510,2
274.225,0.0184581,0.00201417,-0.0501201,-3.79215e-05,274.225,274.227,274.223,-0.0503384,5.87998e-05,25,511,2
228.469,0.0825042,0.00737508,-0.12869,-0.0692581,228.471,228.477,228.462,-0.128752,5.90119e-05,25,512,2
228.469,0.0818431,0.00696117,-0.128697,-0.0629799,228.473,228.478,228.464,-0.128755,7.36764e-05,25,513,2
228.478,0.0526034,0.00465042,-0.128813,-0.06618,228.48,228.484,228.474,-0.128881,4.42423e-05,25,514,2
228.481,0.0752479,0.00385647,-0.128839,-0.0485946,228.482,228.486,228.478,-0.128915,5.88989e-05,25,515,2
274.2,0.0532921,0.00879665,-0.0497418,-0.0444774,274.203,274.211,274.193,-0.0497686,5.90119e-05,25,516,2
274.201,0.0525393,0.0083108,-0.0497209,-0.0397236,274.205,274.212,274.195,-0.0497453,7.36764e-05,25,517,2
274.212,0.0294838,0.005595,-0.0498362,-0.0465039,274.214,274.218,274.207,-0.0498775,4.42423e-05,25,518,2
274.215,0.053517,0.00463098,-0.0499164,-0.0312851,274.217,274.22,274.211,-0.0499646,5.88989e-05,25,519,2
228.481,0.0580007,0.00395583,-0.128839,-0.0682612,228.482,228.486,228.478,-0.128915,5.88989e-05,25,520,2
228.471,0.0731238,0.00714254,-0.128697,-0.0729224,228.471,228.478,228.464,-0.128755,7.36764e-05,25,521,2
228.479,0.07248,0.00468776,-0.128813,-0.0435152,228.48,228.484,228.474,-0.128881,4.42423e-05,25,522,2
228.469,0.0794346,0.00744064,-0.12869,-0.0727584,228.471,228.477,228.462,-0.128752,5.90119e-05,25,523,2
274.216,0.0380028,0.00474664,-0.0499164,-0.0489756,274.216,274.22,274.211,-0.0499646,5.88989e-05,25,524,2
274.203,0.0462415,0.00852992,-0.0497209,-0.0469048,274.203,274.212,274.195,-0.0497453,7.36764e-05,25,525,2
274.212,0.0499544,0.00563824,-0.0498362,-0.0231616,274.213,274.218,274.207,-0.0498775,4.42423e-05,25,526,2
274.201,0.0510529,0.00887773,-0.0497418,-0.0470307,274.203,274.211,274.193,-0.0497686,5.90119e-05,25,527,2
68.6413,0.0453077,0.000511595,-0.607233,-0.0530782,68.6415,68.643,68.6409,-0.608348,0.0001176,25,528,2
68.6426,0.0489546,0.000131953,-0.607182,-0.042932,68.6426,68.6437,68.6425,-0.608096,0.000146905,25,529,2
68.6402,0.0902534,0.000845796,-0.607233,-0.0791502,68.6404,68.6423,68.6396,-0.608612,8.82942e-05,25,530,2
68.6414,0.058538,0.000521068,-0.607233,-0.037992,68.6414,68.643,68.6409,-0.608348,0.0001176,25,531,2
159.951,0.0324882,0.00116752,-0.305416,-0.0426668,159.951,159.952,159.95,-0.305818,0.0001176,25,532,2
159.954,0.0426087,0.000405845,-0.305432,-0.0373668,159.954,159.954,159.953,-0.305766,0.000146905,25,533,2
159.948,0.0742303,0.00191737,-0.305381,-0.0650982,159.949,159.951,159.947,-0.305863,8.82942e-05,25,534,2
159.951,0.0465424,0.00119339,-0.305416,-0.0266411,159.951,159.952,159.95,-0.305818,0.0001176,25,535,2
68.6353,0.142298,0.00222356,-0.607121,-0.119993,68.636,68.638,68.634,-0.607779,0.000118024,25,536,2
68.6355,0.141865,0.0020962,-0.607128,-0.110633,68.6365,68.6382,68.6344,-0.607744,0.000147353,25,537,2
68.6382,0.100043,0.00138852,-0.607175,-0.106527,68.6386,68.64,68.6374,-0.607692,8.84847e-05,25,538,2
68.6389,0.11978,0.00115762,-0.607198,-0.0840364,68.6394,68.6405,68.6383,-0.607732,0.000117798,25,539,2
159.937,0.115684,0.00515593,-0.305332,-0.0973924,159.938,159.943,159.932,-0.3055,0.000118024,25,540,2
159.937,0.115152,0.00486883,-0.305326,-0.0894065,159.939,159.943,159.933,-0.305483,0.000147353,25,541,2
159.943,0.0789261,0.00326185,-0.305371,-0.0885776,159.944,159.947,159.941,-0.305516,8.84847e-05,25,542,2
159.945,0.0999585,0.00270147,-0.305385,-0.0682677,159.946,159.949,159.943,-0.30554,0.000117798,25,543,2
68.6391,0.0989518,0.00118764,-0.607198,-0.107786,68.6392,68.6405,68.6383,-0.607732,0.000117798,25,544,2
68.6359,0.128204,0.00215069,-0.607128,-0.126211,68.6361,68.6382,68.6344,-0.607744,0.000147353,25,545,2
68.6383,0.118674,0.00139956,-0.607175,-0.0852826,68.6386,68.64,68.6374,-0.607692,8.84847e-05,25,546,2
68.6354,0.13754,0.00224302,-0.607121,-0.125418,68.6359,68.638,68.634,-0.607779,0.000118024,25,547,2
159.946,0.0807309,0.00276981,-0.305385,-0.0901926,159.946,159.949,159.943,-0.30554,0.000117798,25,548,2
159.938,0.103672,0.00499648,-0.305326,-0.102497,159.938,159.943,159.933,-0.305483,0.000147353,25,549,2
159.944,0.0981217,0.00328736,-0.305371,-0.0666891,159.944,159.947,159.941,-0.305516,8.84847e-05,25,550,2
159.937,0.111659,0.00520259,-0.305332,-0.101982,159.938,159.943,159.932,-0.3055,0.000118024,25,551,2
-250.996,0.00837043,-0.00170395,-1.61509,-0.0230896,-250.996,-1.61483,-250.994,-250.998,0.000235199,25,552,2
-251,0.0305064,-0.00100326,-1.615,-0.0267534,-251,-1.61479,-250.999,-251.002,0.00029381,25,553,2
-250.992,0.0440698,-0.00273764,-1.61542,-0.0386482,-250.993,-1.61513,-250.99,-250.996,0.000176588,25,554,2
-250.996,0.0239846,-0.00174554,-1.61509,-0.00528502,-250.996,-1.61483,-250.994,-250.998,0.000235199,25,555,2
-68.2675,0.0440384,-0.000523311,-1.10908,-0.0520411,-68.2677,-0.187151,-68.2671,-69.19,0.000235199,25,556,2
-68.2688,0.048408,-7.308e-05,-1.10907,-0.0424527,-68.2688,-0.188176,-68.2686,-69.1898,0.00029381,25,557,2
-68.2663,0.0886614,-0.000867772,-1.10904,-0.0777539,-68.2665,-0.18565,-68.2656,-69.1906,0.000176588,25,558,2
-68.2675,0.057344,-0.000527462,-1.10908,-0.036869,-68.2676,-0.187151,-68.2671,-69.19,0.000235199,25,559,2
-250.974,0.0655185,-0.00794857,-1.61526,-0.05485,-250.977,-1.6152,-250.967,-250.983,0.000236048,25,560,2
-250.975,0.0647998,-0.00753597,-1.61526,-0.0494565,-250.978,-1.61521,-250.969,-250.984,0.000294706,25,561,2
-250.984,0.0391756,-0.0051695,-1.61511,-0.0547525,-250.986,-1.61505,-250.98,-250.99,0.000176969,25,562,2
-250.987,0.0626476,-0.00419368,-1.61519,-0.0385548,-250.989,-1.61512,-250.984,-250.992,0.000235596,25,563,2
-68.2615,0.139663,-0.00220662,-1.10907,-0.117728,-68.2622,-0.18928,-68.2598,-69.1836,0.000236048,25,564,2
-68.2617,0.13922,-0.00207788,-1.10907,-0.108503,-68.2626,-0.189523,-68.2603,-69.1836,0.000294706,25,565,2
-68.2644,0.0979348,-0.0013666,-1.10909,-0.104753,-68.2648,-0.190198,-68.2634,-69.1847,0.000176969,25,566,2
-68.265,0.117805,-0.00114695,-1.10907,-0.0824801,-68.2656,-0.190119,-68.2643,-69.1853,0.000235596,25,567,2
-250.988,0.0464021,-0.00430074,-1.61519,-0.0570792,-250.988,-1.61512,-250.984,-250.992,0.000235596,25,568,2
-250.976,0.0574915,-0.00773442,-1.61526,-0.0577901,-250.977,-1.61521,-250.969,-250.984,0.000294706,25,569,2
-250.985,0.0593975,-0.00521562,-1.61511,-0.0316938,-250.986,-1.61505,-250.98,-250.99,0.000176969,25,570,2
-250.975,0.0629327,-0.00802311,-1.61526,-0.0577987,-250.976,-1.6152,-250.967,-250.983,0.000236048,25,571,2
-68.2653,0.0971511,-0.00118085,-1.10907,-0.106031,-68.2653,-0.190119,-68.2643,-69.1853,0.000235596,25,572,2
-68.2621,0.125746,-0.00212868,-1.10907,-0.123867,-68.2622,-0.189523,-68.2603,-69.1836,0.000294706,25,573,2
-68.2645,0.11664,-0.00138103,-1.10909,-0.083424,-68.2647,-0.190198,-68.2634,-69.1847,0.000176969,25,574,2
-68.2616,0.134951,-0.00222215,-1.10907,-0.123101,-68.2621,-0.18928,-68.2598,-69.1836,0.000236048,25,575,2
308.552,-0.0108932,0.00237627,-0.013506,-0.00670916,308.551,308.554,308.549,-0.0136989,2.93999e-05,25,576,2
308.557,0.019573,3.77593e-06,-0.0136335,-0.0223187,308.557,308.558,308.555,-0.0137952,3.67262e-05,25,577,2
308.547,0.0190022,0.00396639,-0.0128175,-0.0216678,308.546,308.55,308.542,-0.0130288,2.20736e-05,25,578,2
308.552,0.00807361,0.00237352,-0.013506,0.00992433,308.551,308.554,308.549,-0.0136989,2.93999e-05,25,579,2
331.45,-0.0172602,0.00152533,-0.00207298,-0.000455392,331.45,331.454,331.447,-0.00225274,2.93999e-05,25,580,2
331.456,0.0141876,0.00385611,-0.00268547,-0.0161778,331.455,331.461,331.45,-0.00283463,3.67262e-05,25,581,2
331.45,0.00945199,0.001886,-0.000459507,-0.0107779,331.449,331.453,331.446,-0.000653443,2.20736e-05,25,582,2
331.451,0.0027044,0.00146265,-0.00207298,0.0170531,331.45,331.454,331.447,-0.00225274,2.93999e-05,25,583,2
308.527,0.0249185,0.00987612,-0.0131545,-0.0266537,308.525,308.536,308.516,-0.0131663,2.9506e-05,25,584,2
308.528,0.0245074,0.00943453,-0.0132484,-0.0230682,308.527,308.537,308.518,-0.0132589,3.68382e-05,25,585,2
308.539,0.005881,0.00600252,-0.013105,-0.03086,308.538,308.544,308.532,-0.0131348,2.21212e-05,25,586,2
308.542,0.0327114,0.00518438,-0.0128717,-0.0212365,308.542,308.547,308.536,-0.0129068,2.94495e-05,25,587,2
331.426,0.00915653,0.00990553,-0.00185612,-0.00928039,331.424,331.435,331.415,-0.00186352,2.9506e-05,25,588,2
331.426,0.00852674,0.00977017,-0.00189896,-0.0066497,331.426,331.436,331.416,-0.0019056,3.68382e-05,25,589,2
331.436,-0.00712271,0.00752389,-0.00284395,-0.0163708,331.435,331.443,331.428,-0.00286974,2.21212e-05,25,590,2
331.441,0.020305,0.00556273,-0.00219544,-0.00801417,331.44,331.446,331.435,-0.00222517,2.94495e-05,25,591,2
308.543,0.0167851,0.00502106,-0.0128717,-0.0352035,308.54,308.547,308.536,-0.0129068,2.94495e-05,25,592,2
308.529,0.019672,0.00921137,-0.0132484,-0.0273087,308.525,308.537,308.518,-0.0132589,3.68382e-05,25,593,2
308.539,0.0298284,0.00593464,-0.013105,-0.00985873,308.537,308.544,308.532,-0.0131348,2.21212e-05,25,594,2
308.528,0.0231732,0.00980979,-0.0131545,-0.0281843,308.524,308.536,308.516,-0.0131663,2.9506e-05,25,595,2
331.442,0.00529528,0.00541914,-0.00219544,-0.0211773,331.439,331.446,331.435,-0.00222517,2.94495e-05,25,596,2
331.428,0.00547985,0.0095225,-0.00189896,-0.00932175,331.424,331.436,331.416,-0.0019056,3.68382e-05,25,597,2
331.437,0.0171604,0.00741476,-0.00284395,0.00492496,331.434,331.443,331.428,-0.00286974,2.21212e-05,25,598,2
331.426,0.00800583,0.00980672,-0.00185612,-0.0102895,331.423,331.435,331.415,-0.00186352,2.9506e-05,25,599,2
228.489,0.0124584,0.00172149,-0.128945,-0.0315559,228.489,228.491,228.487,-0.129211,5.87998e-05,25,600,2
228.493,0.030332,0.000560746,-0.128994,-0.034587,228.493,228.494,228.492,-0.129217,7.34525e-05,25,601,2
228.486,0.0475691,0.00275822,-0.128858,-0.0542422,228.485,228.489,228.483,-0.129165,4.41471e-05,25,602,2
228.489,0.0296598,0.00168672,-0.128945,-0.0164707,228.489,228.491,228.487,-0.129211,5.87998e-05,25,603,2
274.225,3.79216e-05,0.00201417,-0.0501201,-0.0184581,274.225,274.227,274.223,-0.0503384,5.87998e-05,25,604,2
274.229,0.0241456,0.000717225,-0.0502292,-0.0275328,274.229,274.23,274.229,-0.0504127,7.34525e-05,25,605,2
274.221,0.0321517,0.00325824,-0.0499918,-0.036662,274.22,274.224,274.217,-0.0502363,4.41471e-05,25,606,2
274.225,0.0182952,0.00196868,-0.0501201,-0.00244686,274.224,274.227,274.223,-0.0503384,5.87998e-05,25,607,2
228.471,0.0727584,0.00744064,-0.12869,-0.0794346,228.469,228.477,228.462,-0.128752,5.90119e-05,25,608,2
228.471,0.0729224,0.00714254,-0.128697,-0.0731238,228.471,228.478,228.464,-0.128755,7.36764e-05,25,609,2
228.48,0.0435152,0.00468776,-0.128813,-0.07248,228.479,228.484,228.474,-0.128881,4.42423e-05,25,610,2
228.482,0.0682612,0.00395583,-0.128839,-0.0580007,228.481,228.486,228.478,-0.128915,5.88989e-05,25,611,2
274.203,0.0470307,0.00887773,-0.0497418,-0.0510529,274.201,274.211,274.193,-0.0497686,5.90119e-05,25,612,2
274.203,0.0469048,0.00852992,-0.0497209,-0.0462415,274.203,274.212,274.195,-0.0497453,7.36764e-05,25,613,2
274.213,0.0231616,0.00563824,-0.0498362,-0.0499544,274.212,274.218,274.207,-0.0498775,4.42423e-05,25,614,2
274.216,0.0489756,0.00474664,-0.0499164,-0.0380028,274.216,274.22,274.211,-0.0499646,5.88989e-05,25,615,2
228.482,0.0485946,0.00385647,-0.128839,-0.0752479,228.481,228.486,228.478,-0.128915,5.88989e-05,25,616,2
228.473,0.0629799,0.00696117,-0.128697,-0.0818431,228.469,228.478,228.464,-0.128755,7.36764e-05,25,617,2
228.48,0.06618,0.00465042,-0.128813,-0.0526034,228.478,228.484,228.474,-0.128881,4.42423e-05,25,618,2
228.471,0.0692581,0.00737508,-0.12869,-0.0825042,228.469,228.477,228.462,-0.128752,5.90119e-05,25,619,2
274.217,0.0312851,0.00463098,-0.0499164,-0.053517,274.215,274.22,274.211,-0.0499646,5.88989e-05,25,620,2
274.205,0.0397236,0.0083108,-0.0497209,-0.0525393,274.201,274.212,274.195,-0.0497453,7.36764e-05,25,621,2
274.214,0.0465039,0.005595,-0.0498362,-0.0294838,274.212,274.218,274.207,-0.0498775,4.42423e-05,25,622,2
274.203,0.0444774,0.00879665,-0.0497418,-0.0532921,274.2,274.211,274.193,-0.0497686,5.90119e-05,25,623,2
68.6414,0.037992,0.000521068,-0.607233,-0.058538,68.6414,68.643,68.6409,-0.608348,0.0001176,25,624,2
68.6426,0.042932,0.000131953,-0.607182,-0.0489546,68.6426,68.6437,68.6425,-0.608096,0.000146905,25,625,2
68.6404,0.0791502,0.000845796,-0.607233,-0.0902534,68.6402,68.6423,68.6396,-0.608612,8.82942e-05,25,626,2
68.6415,0.0530782,0.000511595,-0.607233,-0.0453077,68.6413,68.643,68.6409,-0.608348,0.0001176,25,627,2
159.951,0.0266411,0.00119339,-0.305416,-0.0465424,159.951,159.952,159.95,-0.305818,0.0001176,25,628,2
159.954,0.0373668,0.000405845,-0.305432,-0.0426087,159.954,159.954,159.953,-0.305766,0.000146905,25,629,2
159.949,0.0650982,0.00191737,-0.305381,-0.0742303,159.948,159.951,159.947,-0.305863,8.82942e-05,25,630,2
159.951,0.0426668,0.00116752,-0.305416,-0.0324882,159.951,159.952,159.95,-0.305818,0.0001176,25,631,2
68.6359,0.125418,0.00224302,-0.607121,-0.13754,68.6354,68.638,68.634,-0.607779,0.000118024,25,632,2
68.6361,0.126211,0.00215069,-0.607128,-0.128204,68.6359,68.6382,68.6344,-0.607744,0.000147353,25,633,2
68.6386,0.0852826,0.00139956,-0.607175,-0.118674,68.6383,68.64,68.6374,-0.607692,8.84847e-05,25,634,2
68.6392,0.107786,0.00118764,-0.607198,-0.0989518,68.6391,68.6405,68.6383,-0.607732,0.000117798,25,635,2
159.938,0.101982,0.00520259,-0.305332,-0.111659,159.937,159.943,159.932,-0.3055,0.000118024,25,636,2
159.938,0.102497,0.00499648,-0.305326,-0.103672,159.938,159.943,159.933,-0.305483,0.000147353,25,637,2
159.944,0.0666891,0.00328736,-0.305371,-0.0981217,159.944,159.947,159.941,-0.305516,8.84847e-05,25,638,2
159.946,0.0901926,0.00276981,-0.305385,-0.0807309,159.946,159.949,159.943,-0.30554,0.000117798,25,639,2
68.6394,0.0840364,0.00115762,-0.607198,-0.11978,68.6389,68.6405,68.6383,-0.607732,0.000117798,25,640,2
68.6365,0.110633,0.0020962,-0.607128,-0.141865,68.6355,68.6382,68.6344,-0.607744,0.000147353,25,641,2
68.6386,0.106527,0.00138852,-0.607175,-0.100043,68.6382,68.64,68.6374,-0.607692,8.84847e-05,25,642,2
68.636,0.119993,0.00222356,-0.607121,-0.142298,68.6353,68.638,68.634,-0.607779,0.000118024,25,643,2
159.946,0.0682677,0.00270147,-0.305385,-0.0999585,159.945,159.949,159.943,-0.30554,0.000117798,25,644,2
159.939,0.0894065,0.00486883,-0.305326,-0.115152,159.937,159.943,159.933,-0.305483,0.000147353,25,645,2
159.944,0.0885776,0.00326185,-0.305371,-0.0789261,159.943,159.947,159.941,-0.305516,8.84847e-05,25,646,2
159.938,0.0973924,0.00515593,-0.305332,-0.115684,159.937,159.943,159.932,-0.3055,0.000118024,25,647,2
-250.996,0.00528503,-0.00174554,-1.61509,-0.0239846,-250.996,-1.61483,-250.994,-250.998,0.000235199,25,648,2
-251,0.0267534,-0.00100326,-1.615,-0.0305064,-251,-1.61479,-250.999,-251.002,0.00029381,25,649,2
-250.993,0.0386482,-0.00273764,-1.61542,-0.0440698,-250.992,-1.61513,-250.99,-250.996,0.000176588,25,650,2
-250.996,0.0230896,-0.00170395,-1.61509,-0.00837043,-250.996,-1.61483,-250.994,-250.998,0.000235199,25,651,2
-68.2676,0.036869,-0.000527462,-1.10908,-0.057344,-68.2675,-0.187151,-68.2671,-69.19,0.000235199,25,652,2
-68.2688,0.0424527,-7.308e-05,-1.10907,-0.048408,-68.2688,-0.188176,-68.2686,-69.1898,0.00029381,25,653,2
-68.2665,0.0777539,-0.000867772,-1.10904,-0.0886614,-68.2663,-0.18565,-68.2656,-69.1906,0.000176588,25,654,2
-68.2677,0.0520411,-0.000523311,-1.10908,-0.0440384,-68.2675,-0.187151,-68.2671,-69.19,0.000235199,25,655,2
-250.976,0.0577987,-0.00802311,-1.61526,-0.0629327,-250.975,-1.6152,-250.967,-250.983,0.000236048,25,656,2
-250.977,0.0577901,-0.00773442,-1.61526,-0.0574915,-250.976,-1.61521,-250.969,-250.984,0.000294706,25,657,2
-250.986,0.0316938,-0.00521562,-1.61511,-0.0593975,-250.985,-1.61505,-250.98,-250.99,0.000176969,25,658,2
-250.988,0.0570792,-0.00430074,-1.61519,-0.0464021,-250.988,-1.61512,-250.984,-250.992,0.000235596,25,659,2
-68.2621,0.123101,-0.00222215,-1.10907,-0.134951,-68.2616,-0.18928,-68.2598,-69.1836,0.000236048,25,660,2
-68.2622,0.123867,-0.00212868,-1.10907,-0.125746,-68.2621,-0.189523,-68.2603,-69.1836,0.000294706,25,661,2
-68.2647,0.083424,-0.00138103,-1.10909,-0.11664,-68.2645,-0.190198,-68.2634,-69.1847,0.000176969,25,662,2
-68.2653,0.106031,-0.00118085,-1.10907,-0.0971511,-68.2653,-0.190119,-68.2643,-69.1853,0.000235596,25,663,2
-250.989,0.0385548,-0.00419368,-1.61519,-0.0626476,-250.987,-1.61512,-250.984,-250.992,0.000235596,25,664,2
-250.978,0.0494565,-0.00753597,-1.61526,-0.0647998,-250.975,-1.61521,-250.969,-250.984,0.000294706,25,665,2
-250.986,0.0547525,-0.0051695,-1.61511,-0.0391756,-250.984,-1.61505,-250.98,-250.99,0.000176969,25,666,2
-250.977,0.05485,-0.00794857,-1.61526,-0.0655185,-250.974,-1.6152,-250.967,-250.983,0.000236048,25,667,2
-68.2656,0.0824801,-0.00114695,-1.10907,-0.117805,-68.265,-0.190119,-68.2643,-69.1853,0.000235596,25,668,2
-68.2626,0.108503,-0.00207788,-1.10907,-0.13922,-68.2617,-0.189523,-68.2603,-69.1836,0.000294706,25,669,2
-68.2648,0.104753,-0.0013666,-1.10909,-0.0979348,-68.2644,-0.190198,-68.2634,-69.1847,0.000176969,25,670,2
-68.2622,0.117728,-0.00220662,-1.10907,-0.139663,-68.2615,-0.18928,-68.2598,-69.1836,0.000236048,25,671,2
308.552,-0.0116758,0.00221708,-0.013506,-0.00522991,308.55,308.554,308.549,-0.0136989,2.93999e-05,25,672,2
308.557,0.0164923,3.51862e-06,-0.0136335,-0.0246825,308.557,308.558,308.555,-0.0137952,3.67262e-05,25,673,2
308.548,0.0160114,0.00369609,-0.0128175,-0.0239627,308.545,308.55,308.542,-0.0130288,2.20736e-05,25,674,2
308.552,0.00929993,0.00220902,-0.013506,0.00878561,308.55,308.554,308.549,-0.0136989,2.93999e-05,25,675,2
331.451,-0.017172,0.00148406,-0.00207298,0.00180141,331.45,331.454,331.447,-0.00225274,2.93999e-05,25,676,2
331.457,0.0119546,0.00359332,-0.00268547,-0.0178913,331.454,331.461,331.45,-0.00283463,3.67262e-05,25,677,2
331.45,0.00796433,0.00175747,-0.000459507,-0.0119195,331.449,331.453,331.446,-0.000653444,2.20736e-05,25,678,2
331.451,0.00490714,0.00130029,-0.00207298,0.0165542,331.45,331.454,331.447,-0.00225274,2.93999e-05,25,679,2
308.53,0.0212263,0.00926941,-0.0131545,-0.0296782,308.522,308.536,308.516,-0.0131663,2.9506e-05,25,680,2
308.53,0.0212867,0.00901474,-0.0132484,-0.0260697,308.525,308.537,308.518,-0.0132589,3.68382e-05,25,681,2
308.54,0.00180265,0.00566134,-0.013105,-0.0313636,308.536,308.544,308.532,-0.0131348,2.21212e-05,25,682,2
308.543,0.0296596,0.00499439,-0.0128717,-0.0253245,308.54,308.547,308.536,-0.0129068,2.94495e-05,25,683,2
331.428,0.00786686,0.00932929,-0.00185612,-0.0103962,331.421,331.435,331.415,-0.00186352,2.9506e-05,25,684,2
331.429,0.00758583,0.00935202,-0.00189896,-0.00770578,331.423,331.436,331.416,-0.0019056,3.68382e-05,25,685,2
331.438,-0.00919859,0.00712027,-0.00284395,-0.015301,331.433,331.443,331.428,-0.00286974,2.21212e-05,25,686,2
331.442,0.0190852,0.00532722,-0.00219544,-0.0105959,331.439,331.446,331.435,-0.00222517,2.94495e-05,25,687,2
308.544,0.0120465,0.00451557,-0.0128717,-0.0370932,308.539,308.547,308.536,-0.0129068,2.94495e-05,25,688,2
308.532,0.0159391,0.00836047,-0.0132484,-0.0296428,308.523,308.537,308.518,-0.0132589,3.68382e-05,25,689,2
308.541,0.0282864,0.00546233,-0.013105,-0.0136678,308.536,308.544,308.532,-0.0131348,2.21212e-05,25,690,2
308.53,0.0192961,0.00907493,-0.0131545,-0.0309679,308.522,308.536,308.516,-0.0131663,2.9506e-05,25,691,2
331.443,0.00248579,0.00490625,-0.00219545,-0.0216873,331.438,331.446,331.435,-0.00222517,2.94495e-05,25,692,2
331.431,0.00421624,0.00862589,-0.00189896,-0.00995727,331.421,331.436,331.416,-0.0019056,3.68382e-05,25,693,2
331.439,0.0176565,0.00680033,-0.00284395,0.00264294,331.432,331.443,331.428,-0.00286974,2.21212e-05,25,694,2
331.429,0.00659428,0.0090396,-0.00185612,-0.0112465,331.42,331.435,331.415,-0.00186352,2.9506e-05,25,695,2
228.49,0.00823299,0.00163894,-0.128945,-0.0329121,228.488,228.491,228.487,-0.129211,5.87998e-05,25,696,2
228.493,0.025558,0.000522532,-0.128994,-0.0382502,228.493,228.494,228.492,-0.129217,7.34525e-05,25,697,2
228.487,0.0400821,0.00257025,-0.128858,-0.0599872,228.484,228.489,228.483,-0.129165,4.41471e-05,25,698,2
228.49,0.0272561,0.001537,-0.128945,-0.0202012,228.488,228.491,228.487,-0.129211,5.87998e-05,25,699,2
274.225,-0.00237167,0.00192241,-0.0501201,-0.0183051,274.224,274.227,274.223,-0.0503384,5.87998e-05,25,700,2
274.23,0.0203453,0.000668347,-0.0502292,-0.0304488,274.229,274.23,274.229,-0.0504127,7.34525e-05,25,701,2
274.222,0.0270913,0.00303619,-0.0499918,-0.040545,274.219,274.224,274.217,-0.0502363,4.41471e-05,25,702,2
274.226,0.0178193,0.00178903,-0.0501201,-0.00481394,274.224,274.227,274.223,-0.0503384,5.87998e-05,25,703,2
228.473,0.0617676,0.00699912,-0.12869,-0.0882519,228.467,228.477,228.462,-0.128752,5.90119e-05,25,704,2
228.473,0.062754,0.00683716,-0.128697,-0.0820165,228.469,228.478,228.464,-0.128755,7.36764e-05,25,705,2
228.481,0.0336824,0.00440564,-0.128813,-0.0775398,228.477,228.484,228.474,-0.128881,4.42423e-05,25,706,2
228.483,0.0601066,0.0037856,-0.128839,-0.0664143,228.48,228.486,228.478,-0.128915,5.88989e-05,25,707,2
274.205,0.0399646,0.0083538,-0.0497418,-0.0567549,274.199,274.211,274.193,-0.0497686,5.90119e-05,25,708,2
274.206,0.0404678,0.00816775,-0.0497209,-0.0519682,274.201,274.212,274.195,-0.0497453,7.36764e-05,25,709,2
274.215,0.0164431,0.00529725,-0.0498362,-0.0525503,274.211,274.218,274.207,-0.0498775,4.42423e-05,25,710,2
274.217,0.0435963,0.00453881,-0.0499164,-0.0440703,274.214,274.22,274.211,-0.0499646,5.88989e-05,25,711,2
228.483,0.038357,0.0034943,-0.128839,-0.080947,228.48,228.486,228.478,-0.128915,5.88989e-05,25,712,2
228.474,0.0517585,0.0063054,-0.128697,-0.0893635,228.468,228.478,228.464,-0.128755,7.36764e-05,25,713,2
228.481,0.0587477,0.00429616,-0.128813,-0.0607916,228.477,228.484,228.474,-0.128881,4.42423e-05,25,714,2
228.473,0.0578967,0.00680693,-0.12869,-0.0908384,228.467,228.477,228.462,-0.128752,5.90119e-05,25,715,2
274.218,0.024032,0.00419973,-0.0499164,-0.0571426,274.213,274.22,274.211,-0.0499646,5.88989e-05,25,716,2
274.207,0.032526,0.0075253,-0.0497209,-0.0572747,274.199,274.212,274.195,-0.0497453,7.36764e-05,25,717,2
274.215,0.0422576,0.00517047,-0.0498362,-0.0353016,274.21,274.218,274.207,-0.0498775,4.42423e-05,25,718,2
274.205,0.0371409,0.0081161,-0.0497418,-0.0586416,274.198,274.211,274.193,-0.0497686,5.90119e-05,25,719,2
68.6416,0.0300262,0.000495031,-0.607233,-0.0629961,68.6412,68.643,68.6409,-0.608348,0.0001176,25,720,2
68.6427,0.0361749,0.000122961,-0.607182,-0.0541395,68.6426,68.6437,68.6425,-0.608096,0.000146905,25,721,2
68.6406,0.0666926,0.000788156,-0.607233,-0.0998125,68.64,68.6423,68.6396,-0.608612,8.82942e-05,25,722,2
68.6416,0.0467103,0.000467258,-0.607233,-0.0518482,68.6412,68.643,68.6409,-0.608348,0.0001176,25,723,2
159.951,0.0203382,0.00113793,-0.305416,-0.0496215,159.951,159.952,159.95,-0.305818,0.0001176,25,724,2
159.954,0.0314856,0.000378187,-0.305432,-0.0471216,159.954,159.954,159.953,-0.305766,0.000146905,25,725,2
159.949,0.0548523,0.0017867,-0.305381,-0.0820923,159.948,159.951,159.947,-0.305863,8.82942e-05,25,726,2
159.951,0.0380612,0.00106208,-0.305416,-0.0377794,159.95,159.952,159.95,-0.305818,0.0001176,25,727,2
68.6364,0.106392,0.00210962,-0.607121,-0.152733,68.6349,68.638,68.634,-0.607779,0.000118024,25,728,2
68.6366,0.108397,0.00205861,-0.607128,-0.143581,68.6354,68.6382,68.6344,-0.607744,0.000147353,25,729,2
68.6389,0.0690629,0.00131522,-0.607175,-0.128791,68.6379,68.64,68.6374,-0.607692,8.84847e-05,25,730,2
68.6395,0.0939481,0.00113672,-0.607198,-0.112174,68.6388,68.6405,68.6383,-0.607732,0.000117798,25,731,2
159.939,0.0865348,0.00489471,-0.305332,-0.124015,159.936,159.943,159.932,-0.3055,0.000118024,25,732,2
159.94,0.0880883,0.00478363,-0.305326,-0.116164,159.937,159.943,159.933,-0.305483,0.000147353,25,733,2
159.945,0.0533112,0.00308884,-0.305371,-0.105987,159.943,159.947,159.941,-0.305516,8.84847e-05,25,734,2
159.946,0.0788835,0.00264939,-0.305385,-0.0918127,159.945,159.949,159.943,-0.30554,0.000117798,25,735,2
68.6397,0.0676831,0.00104872,-0.607198,-0.129724,68.6386,68.6405,68.6383,-0.607732,0.000117798,25,736,2
68.637,0.0911696,0.00189886,-0.607128,-0.155092,68.635,68.6382,68.6344,-0.607744,0.000147353,25,737,2
68.639,0.0925577,0.00128286,-0.607175,-0.113092,68.6378,68.64,68.6374,-0.607692,8.84847e-05,25,738,2
68.6366,0.100393,0.00205257,-0.607121,-0.156742,68.6347,68.638,68.634,-0.607779,0.000118024,25,739,2
159.947,0.0546365,0.00244904,-0.305385,-0.108014,159.944,159.949,159.943,-0.30554,0.000117798,25,740,2
159.941,0.0736113,0.00440938,-0.305326,-0.125837,159.936,159.943,159.933,-0.305483,0.000147353,25,741,2
159.945,0.0775179,0.00301405,-0.305371,-0.0898125,159.943,159.947,159.941,-0.305516,8.84847e-05,25,742,2
159.94,0.0814594,0.00475789,-0.305332,-0.127406,159.935,159.943,159.932,-0.3055,0.000118024,25,743,2
-250.996,0.00210919,-0.00166817,-1.61509,-0.0244692,-250.995,-1.61483,-250.994,-250.998,0.000235199,25,744,2
-251.001,0.0225427,-0.000934888,-1.615,-0.0337375,-251,-1.61479,-250.999,-251.002,0.00029381,25,745,2
-250.994,0.0325653,-0.00255108,-1.61542,-0.0487373,-250.992,-1.61513,-250.99,-250.996,0.000176588,25,746,2
-250.997,0.0217995,-0.00154624,-1.61509,-0.0113126,-250.995,-1.61483,-250.994,-250.998,0.000235199,25,747,2
-68.2678,0.0290686,-0.000495668,-1.10908,-0.0616658,-68.2674,-0.187151,-68.2671,-69.19,0.000235199,25,748,2
-68.2688,0.035771,-6.80997e-05,-1.10907,-0.0535351,-68.2688,-0.188176,-68.2686,-69.1898,0.00029381,25,749,2
-68.2667,0.0655161,-0.000808635,-1.10904,-0.0980518,-68.2661,-0.18565,-68.2656,-69.1906,0.000176588,25,750,2
-68.2678,0.0458477,-0.000483496,-1.10908,-0.0504544,-68.2674,-0.187151,-68.2671,-69.19,0.000235199,25,751,2
-250.978,0.0490898,-0.00755088,-1.61526,-0.0699385,-250.972,-1.6152,-250.967,-250.983,0.000236048,25,752,2
-250.979,0.0497915,-0.00740577,-1.61526,-0.0645427,-250.974,-1.61521,-250.969,-250.984,0.000294706,25,753,2
-250.987,0.0236697,-0.0049063,-1.61511,-0.0630262,-250.983,-1.61505,-250.98,-250.99,0.000176969,25,754,2
-250.989,0.0505342,-0.0041147,-1.61519,-0.0534555,-250.987,-1.61512,-250.984,-250.992,0.000235596,25,755,2
-68.2626,0.104434,-0.00208625,-1.10907,-0.149864,-68.261,-0.18928,-68.2598,-69.1836,0.000236048,25,756,2
-68.2628,0.106394,-0.00203441,-1.10907,-0.140838,-68.2615,-0.189523,-68.2603,-69.1836,0.000294706,25,757,2
-68.2651,0.0674857,-0.00130134,-1.10909,-0.126531,-68.2641,-0.190198,-68.2634,-69.1847,0.000176969,25,758,2
-68.2656,0.0924432,-0.00113428,-1.10907,-0.11016,-68.265,-0.190119,-68.2643,-69.1853,0.000235596,25,759,2
-250.99,0.0300478,-0.00380084,-1.61519,-0.0671441,-250.986,-1.61512,-250.984,-250.992,0.000235596,25,760,2
-250.98,0.0405753,-0.00682397,-1.61526,-0.0707008,-250.973,-1.61521,-250.969,-250.984,0.000294706,25,761,2
-250.987,0.0491706,-0.00477109,-1.61511,-0.0459871,-250.983,-1.61505,-250.98,-250.99,0.000176969,25,762,2
-250.979,0.0458289,-0.00733236,-1.61526,-0.0721174,-250.972,-1.6152,-250.967,-250.983,0.000236048,25,763,2
-68.2659,0.0663979,-0.00103489,-1.10907,-0.127563,-68.2647,-0.190119,-68.2643,-69.1853,0.000235596,25,764,2
-68.2631,0.0894024,-0.00188548,-1.10907,-0.152192,-68.2612,-0.189523,-68.2603,-69.1836,0.000294706,25,765,2
-68.2652,0.0910737,-0.00125904,-1.10909,-0.11077,-68.264,-0.190198,-68.2634,-69.1847,0.000176969,25,766,2
-68.2627,0.0984913,-0.00204071,-1.10907,-0.153834,-68.2609,-0.18928,-68.2598,-69.1836,0.000236048,25,767,2
308.553,-0.0122585,0.0019068,-0.013506,-0.00366117,308.55,308.554,308.549,-0.0136989,2.93999e-05,25,768,2
308.557,0.0131295,3.0215e-06,-0.0136335,-0.026624,308.557,308.558,308.555,-0.0137952,3.67262e-05,25,769,2
308.549,0.0127466,0.0031739,-0.0128175,-0.0258476,308.544,308.55,308.542,-0.0130288,2.20736e-05,25,770,2
308.553,0.0103671,0.00189398,-0.013506,0.00749656,308.55,308.554,308.549,-0.0136989,2.93999e-05,25,771,2
331.451,-0.0167899,0.00134166,-0.00207298,0.00402739,331.45,331.454,331.447,-0.00225274,2.93999e-05,25,772,2
331.457,0.00951701,0.00308566,-0.00268547,-0.0192986,331.453,331.461,331.45,-0.00283463,3.67262e-05,25,773,2
331.451,0.00634039,0.00150917,-0.000459507,-0.012857,331.448,331.453,331.446,-0.000653443,2.20736e-05,25,774,2
331.451,0.00702591,0.00104932,-0.00207298,0.0157721,331.449,331.454,331.447,-0.00225274,2.93999e-05,25,775,2
308.532,0.0171709,0.00803101,-0.0131545,-0.0321949,308.52,308.536,308.516,-0.0131663,2.9506e-05,25,776,2
308.532,0.0177018,0.00798062,-0.0132484,-0.0286251,308.522,308.537,308.518,-0.0132589,3.68382e-05,25,777,2
308.542,-0.00230655,0.00493434,-0.013105,-0.0313306,308.535,308.544,308.532,-0.0131348,2.21212e-05,25,778,2
308.544,0.0261004,0.00446404,-0.0128717,-0.0289792,308.539,308.547,308.536,-0.0129068,2.94495e-05,25,779,2
331.43,0.00644259,0.00811728,-0.00185612,-0.0113341,331.419,331.435,331.415,-0.00186352,2.9506e-05,25,780,2
331.431,0.00651513,0.00829654,-0.00189896,-0.00863,331.421,331.436,331.416,-0.0019056,3.68382e-05,25,781,2
331.44,-0.0111171,0.00623143,-0.00284395,-0.0139695,331.431,331.443,331.428,-0.00286974,2.21212e-05,25,782,2
331.443,0.0175389,0.00472868,-0.00219544,-0.0129964,331.438,331.446,331.435,-0.00222517,2.94495e-05,25,783,2
308.545,0.00710185,0.00370235,-0.0128717,-0.0383483,308.538,308.547,308.536,-0.0129068,2.94495e-05,25,784,2
308.534,0.0119336,0.00693982,-0.0132484,-0.0314697,308.521,308.537,308.518,-0.0132589,3.68382e-05,25,785,2
308.542,0.0262604,0.00461777,-0.013105,-0.017243,308.535,308.544,308.532,-0.0131348,2.21212e-05,25,786,2
308.532,0.0150889,0.00772164,-0.0131545,-0.0332216,308.52,308.536,308.516,-0.0131663,2.9506e-05,25,787,2
331.444,-0.000366239,0.004059,-0.00219544,-0.0218262,331.437,331.446,331.435,-0.00222517,2.94495e-05,25,788,2
331.433,0.00288048,0.00714144,-0.00189896,-0.0104224,331.419,331.436,331.416,-0.0019056,3.68382e-05,25,789,2
331.44,0.0178504,0.00572246,-0.00284395,0.000315693,331.431,331.443,331.428,-0.00286974,2.21212e-05,25,790,2
331.431,0.00506991,0.00765644,-0.00185612,-0.012011,331.418,331.435,331.415,-0.00186352,2.9506e-05,25,791,2
228.49,0.00386667,0.00144471,-0.128945,-0.0337051,228.488,228.491,228.487,-0.129211,5.87998e-05,25,792,2
228.493,0.0203467,0.000448709,-0.128994,-0.0412589,228.493,228.494,228.492,-0.129217,7.34525e-05,25,793,2
228.487,0.0319093,0.00220712,-0.128858,-0.0647057,228.484,228.489,228.483,-0.129165,4.41471e-05,25,794,2
228.49,0.0243862,0.00128254,-0.128945,-0.023586,228.488,228.491,228.487,-0.129211,5.87998e-05,25,795,2
274.226,-0.00474068,0.00169963,-0.0501201,-0.017839,274.224,274.227,274.223,-0.0503384,5.87998e-05,25,796,2
274.23,0.0161968,0.000573923,-0.0502292,-0.0328439,274.229,274.23,274.229,-0.0504127,7.34525e-05,25,797,2
274.222,0.0215673,0.00260724,-0.0499918,-0.0437342,274.218,274.224,274.217,-0.0502363,4.41471e-05,25,798,2
274.226,0.0170386,0.00148745,-0.0501201,-0.00709865,274.223,274.227,274.223,-0.0503384,5.87998e-05,25,799,2
228.474,0.04972,0.00608063,-0.12869,-0.0955592,228.466,228.477,228.462,-0.128752,5.90119e-05,25,800,2
228.475,0.0515118,0.00606584,-0.128697,-0.0895059,228.467,228.478,228.464,-0.128755,7.36764e-05,25,801,2
228.482,0.0232732,0.00382328,-0.128813,-0.0812728,228.476,228.484,228.474,-0.128881,4.42423e-05,25,802,2
228.484,0.0509236,0.0033574,-0.128839,-0.0736917,228.479,228.486,228.478,-0.128915,5.88989e-05,25,803,2
274.207,0.0322147,0.00726058,-0.0497418,-0.0614857,274.197,274.211,274.193,-0.0497686,5.90119e-05,25,804,2
274.208,0.0333384,0.00724896,-0.0497209,-0.0568057,274.199,274.212,274.195,-0.0497453,7.36764e-05,25,805,2
274.216,0.00944324,0.00459525,-0.0498362,-0.0542469,274.209,274.218,274.207,-0.0498775,4.42423e-05,25,806,2
274.218,0.037471,0.00402168,-0.0499164,-0.0493837,274.213,274.22,274.211,-0.0499646,5.88989e-05,25,807,2
228.484,0.0274632,0.002894,-0.128839,-0.0852611,228.479,228.486,228.478,-0.128915,5.88989e-05,25,808,2
228.476,0.0396514,0.00521993,-0.128697,-0.0953548,228.466,228.478,228.464,-0.128755,7.36764e-05,25,809,2
228.482,0.0503102,0.00364912,-0.128813,-0.0679397,228.476,228.484,228.474,-0.128881,4.42423e-05,25,810,2
228.475,0.0455446,0.00577489,-0.12869,-0.0976183,228.465,228.477,228.462,-0.128752,5.90119e-05,25,811,2
274.219,0.0163678,0.00348228,-0.0499164,-0.0597906,274.212,274.22,274.211,-0.0499646,5.88989e-05,25,812,2
274.209,0.0247719,0.00622697,-0.0497209,-0.0610302,274.197,274.212,274.195,-0.0497453,7.36764e-05,25,813,2
274.216,0.0372883,0.00439358,-0.0498362,-0.0405153,274.209,274.218,274.207,-0.0498775,4.42423e-05,25,814,2
274.207,0.0291689,0.00688244,-0.0497418,-0.0629878,274.196,274.211,274.193,-0.0497686,5.90119e-05,25,815,2
68.6417,0.0215467,0.000435259,-0.607233,-0.0663764,68.6411,68.643,68.6409,-0.608348,0.0001176,25,816,2
68.6427,0.0287988,0.000105589,-0.607182,-0.0583981,68.6425,68.6437,68.6425,-0.608096,0.000146905,25,817,2
68.6408,0.0530939,0.000676805,-0.607233,-0.107664,68.6398,68.6423,68.6396,-0.608612,8.82942e-05,25,818,2
68.6417,0.0395431,0.000391078,-0.607233,-0.0575015,68.6411,68.643,68.6409,-0.608348,0.0001176,25,819,2
159.952,0.0136873,0.00100492,-0.305416,-0.0518517,159.95,159.952,159.95,-0.305818,0.0001176,25,820,2
159.954,0.0250657,0.000324757,-0.305432,-0.0508281,159.953,159.954,159.953,-0.305766,0.000146905,25,821,2
159.95,0.0436678,0.00153427,-0.305381,-0.0885496,159.947,159.951,159.947,-0.305863,8.82942e-05,25,822,2
159.952,0.0328044,0.00088427,-0.305416,-0.0424242,159.95,159.952,159.95,-0.305818,0.0001176,25,823,2
68.637,0.0855465,0.00183245,-0.607121,-0.165314,68.6343,68.638,68.634,-0.607779,0.000118024,25,824,2
68.6371,0.0887285,0.00182624,-0.607128,-0.156501,68.6348,68.6382,68.6344,-0.607744,0.000147353,25,825,2
68.6392,0.0516615,0.00114125,-0.607175,-0.136703,68.6376,68.64,68.6374,-0.607692,8.84847e-05,25,826,2
68.6398,0.0785027,0.00100833,-0.607198,-0.123477,68.6385,68.6405,68.6383,-0.607732,0.000117798,25,827,2
159.941,0.0696073,0.00425326,-0.305332,-0.134249,159.934,159.943,159.932,-0.3055,0.000118024,25,828,2
159.941,0.0721723,0.00424478,-0.305326,-0.126668,159.936,159.943,159.933,-0.305483,0.000147353,25,829,2
159.946,0.039021,0.00267982,-0.305371,-0.112039,159.942,159.947,159.941,-0.305516,8.84847e-05,25,830,2
159.947,0.0662247,0.00234841,-0.305385,-0.101324,159.944,159.949,159.943,-0.30554,0.000117798,25,831,2
68.64,0.0501717,0.000868344,-0.607198,-0.137449,68.6383,68.6405,68.6383,-0.607732,0.000117798,25,832,2
68.6374,0.0701461,0.00157211,-0.607128,-0.165665,68.6345,68.6382,68.6344,-0.607744,0.000147353,25,833,2
68.6393,0.0770045,0.00108977,-0.607175,-0.124205,68.6375,68.64,68.6374,-0.607692,8.84847e-05,25,834,2
68.6371,0.0790749,0.0017417,-0.607121,-0.168505,68.6342,68.638,68.634,-0.607779,0.000118024,25,835,2
159.948,0.0400704,0.0020297,-0.305385,-0.114221,159.944,159.949,159.943,-0.30554,0.000117798,25,836,2
159.942,0.0565565,0.00364943,-0.305326,-0.134369,159.935,159.943,159.933,-0.305483,0.000147353,25,837,2
159.946,0.0651318,0.00256086,-0.305371,-0.0991623,159.942,159.947,159.941,-0.305516,8.84847e-05,25,838,2
159.941,0.0641327,0.00403562,-0.305332,-0.136949,159.934,159.943,159.932,-0.3055,0.000118024,25,839,2
-250.997,-0.00110273,-0.00147711,-1.61509,-0.0245352,-250.995,-1.61483,-250.994,-250.998,0.000235199,25,840,2
-251.001,0.0179462,-0.000802807,-1.615,-0.0363913,-251,-1.61479,-250.999,-251.002,0.00029381,25,841,2
-250.994,0.0259252,-0.00219066,-1.61542,-0.052571,-250.991,-1.61513,-250.99,-250.996,0.000176588,25,842,2
-250.997,0.0201364,-0.00128316,-1.61509,-0.0140612,-250.995,-1.61483,-250.994,-250.998,0.000235199,25,843,2
-68.2679,0.020771,-0.000430095,-1.10908,-0.0649324,-68.2673,-0.187151,-68.2671,-69.19,0.000235199,25,844,2
-68.2688,0.0284772,-5.84785e-05,-1.10907,-0.0577461,-68.2687,-0.188176,-68.2686,-69.1898,0.00029381,25,845,2
-68.2669,0.0521573,-0.00069439,-1.10904,-0.105765,-68.2659,-0.18565,-68.2656,-69.1906,0.000176588,25,846,2
-68.2679,0.0388698,-0.000410733,-1.10908,-0.0560071,-68.2672,-0.187151,-68.2671,-69.19,0.000235199,25,847,2
-250.98,0.039541,-0.00656408,-1.61526,-0.0757477,-250.971,-1.6152,-250.967,-250.983,0.000236048,25,848,2
-250.981,0.040941,-0.00657244,-1.61526,-0.0704897,-250.972,-1.61521,-250.969,-250.984,0.000294706,25,849,2
-250.988,0.0152407,-0.00426263,-1.61511,-0.0655766,-250.982,-1.61505,-250.98,-250.99,0.000176969,25,850,2
-250.99,0.0431246,-0.00364825,-1.61519,-0.0595942,-250.986,-1.61512,-250.984,-250.992,0.000235596,25,851,2
-68.2631,0.0839789,-0.00180817,-1.10907,-0.162213,-68.2605,-0.18928,-68.2598,-69.1836,0.000236048,25,852,2
-68.2633,0.0871007,-0.0018015,-1.10907,-0.153521,-68.261,-0.189523,-68.2603,-69.1836,0.000294706,25,853,2
-68.2654,0.0503927,-0.00113297,-1.10909,-0.134257,-68.2638,-0.190198,-68.2634,-69.1847,0.000176969,25,854,2
-68.2659,0.0772736,-0.00101041,-1.10907,-0.121284,-68.2647,-0.190119,-68.2643,-69.1853,0.000235596,25,855,2
-250.991,0.0210267,-0.00314897,-1.61519,-0.0704917,-250.985,-1.61512,-250.984,-250.992,0.000235596,25,856,2
-250.982,0.0309999,-0.00564692,-1.61526,-0.0753921,-250.971,-1.61521,-250.969,-250.984,0.000294706,25,857,2
-250.988,0.0427474,-0.00404754,-1.61511,-0.0520117,-250.982,-1.61505,-250.98,-250.99,0.000176969,25,858,2
-250.98,0.0360236,-0.00621645,-1.61526,-0.0774823,-250.97,-1.6152,-250.967,-250.983,0.000236048,25,859,2
-68.2661,0.0491795,-0.000852297,-1.10907,-0.135138,-68.2645,-0.190119,-68.2643,-69.1853,0.000235596,25,860,2
-68.2636,0.0687726,-0.00156459,-1.10907,-0.162559,-68.2607,-0.189523,-68.2603,-69.1836,0.000294706,25,861,2
-68.2655,0.0758362,-0.00106568,-1.10909,-0.12171,-68.2637,-0.190198,-68.2634,-69.1847,0.000176969,25,862,2
-68.2632,0.0775693,-0.00173573,-1.10907,-0.165374,-68.2604,-0.18928,-68.2598,-69.1836,0.000236048,25,863,2
308.553,-0.0126315,0.00146657,-0.013506,-0.00202979,308.549,308.554,308.549,-0.0136989,2.93999e-05,25,864,2
308.557,0.00954206,2.31846e-06,-0.0136335,-0.02811,308.557,308.558,308.555,-0.0137952,3.67262e-05,25,865,2
308.549,0.00926379,0.00243542,-0.0128175,-0.0272903,308.543,308.55,308.542,-0.0130288,2.20736e-05,25,866,2
308.553,0.0112569,0.00144987,-0.013506,0.00607925,308.549,308.554,308.549,-0.0136989,2.93999e-05,25,867,2
331.451,-0.0161206,0.00110782,-0.00207298,0.00618446,331.449,331.454,331.447,-0.00225274,2.93999e-05,25,868,2
331.458,0.00691662,0.00236771,-0.00268547,-0.0203757,331.452,331.461,331.45,-0.00283463,3.67262e-05,25,869,2
331.451,0.00460797,0.00115803,-0.000459507,-0.0135746,331.448,331.453,331.446,-0.000653443,2.20736e-05,25,870,2
331.452,0.00902447,0.000726836,-0.00207298,0.0147201,331.449,331.454,331.447,-0.00225274,2.93999e-05,25,871,2
308.534,0.0128217,0.0062453,-0.0131545,-0.0341607,308.518,308.536,308.516,-0.0131663,2.9506e-05,25,872,2
308.534,0.0138141,0.00640262,-0.0132484,-0.0306908,308.52,308.537,308.518,-0.0132589,3.68382e-05,25,873,2
308.543,-0.00637628,0.00387108,-0.013105,-0.0307615,308.534,308.544,308.532,-0.0131348,2.21212e-05,25,874,2
308.545,0.0220945,0.00362947,-0.0128717,-0.0321381,308.538,308.547,308.536,-0.0129068,2.94495e-05,25,875,2
331.432,0.00490808,0.00635209,-0.00185612,-0.012078,331.417,331.435,331.415,-0.00186352,2.9506e-05,25,876,2
331.433,0.00533295,0.00667567,-0.00189896,-0.00940657,331.419,331.436,331.416,-0.0019056,3.68382e-05,25,877,2
331.441,-0.0128454,0.00491792,-0.00284395,-0.0123989,331.43,331.443,331.428,-0.00286974,2.21212e-05,25,878,2
331.445,0.0156924,0.00380788,-0.00219544,-0.0151745,331.436,331.446,331.435,-0.00222517,2.94495e-05,25,879,2
308.546,0.00203564,0.00263682,-0.0128717,-0.0389472,308.537,308.547,308.536,-0.0129068,2.94495e-05,25,880,2
308.535,0.00772391,0.00504623,-0.0132484,-0.0327581,308.519,308.537,308.518,-0.0132589,3.68382e-05,25,881,2
308.543,0.0237851,0.00345851,-0.013105,-0.0205231,308.533,308.544,308.532,-0.0131348,2.21212e-05,25,882,2
308.534,0.0106236,0.00584213,-0.0131545,-0.0349069,308.518,308.536,308.516,-0.0131663,2.9506e-05,25,883,2
331.445,-0.003212,0.00293514,-0.00219544,-0.0215917,331.436,331.446,331.435,-0.00222517,2.94495e-05,25,884,2
331.434,0.00149544,0.00517031,-0.00189896,-0.0107092,331.418,331.436,331.416,-0.0019056,3.68382e-05,25,885,2
331.442,0.0177389,0.00425463,-0.00284395,-0.00201695,331.429,331.443,331.428,-0.00286974,2.21212e-05,25,886,2
331.433,0.00345879,0.00575151,-0.00185612,-0.01257,331.416,331.435,331.415,-0.00186352,2.9506e-05,25,887,2
228.49,-0.000565813,0.00115201,-0.128945,-0.0339215,228.488,228.491,228.487,-0.129211,5.87998e-05,25,888,2
228.493,0.0147872,0.000344306,-0.128994,-0.0435617,228.493,228.494,228.492,-0.129217,7.34525e-05,25,889,2
228.488,0.0231906,0.00169359,-0.128858,-0.0683172,228.483,228.489,228.483,-0.129165,4.41471e-05,25,890,2
228.49,0.021099,0.000940674,-0.128945,-0.0265673,228.488,228.491,228.487,-0.129211,5.87998e-05,25,891,2
274.226,-0.00702858,0.00136102,-0.0501201,-0.0170676,274.223,274.227,274.223,-0.0503384,5.87998e-05,25,892,2
274.23,0.0117713,0.000440386,-0.0502292,-0.0346771,274.229,274.23,274.229,-0.0504127,7.34525e-05,25,893,2
274.223,0.0156744,0.0020006,-0.0499918,-0.0461752,274.218,274.224,274.217,-0.0502363,4.41471e-05,25,894,2
274.226,0.0159662,0.00108451,-0.0501201,-0.0092619,274.223,274.227,274.223,-0.0503384,5.87998e-05,25,895,2
228.476,0.0368217,0.00474776,-0.12869,-0.101231,228.464,228.477,228.462,-0.128752,5.90119e-05,25,896,2
228.476,0.0393883,0.00488114,-0.128697,-0.0954638,228.466,228.478,228.464,-0.128755,7.36764e-05,25,897,2
228.483,0.0124659,0.00298037,-0.128813,-0.0836153,228.475,228.484,228.474,-0.128881,4.42423e-05,25,898,2
228.484,0.0408693,0.00270039,-0.128839,-0.0797081,228.479,228.486,228.478,-0.128915,5.88989e-05,25,899,2
274.209,0.0239136,0.00567256,-0.0497418,-0.0651646,274.195,274.211,274.193,-0.0497686,5.90119e-05,25,900,2
274.209,0.0256385,0.00583616,-0.0497209,-0.0606713,274.197,274.212,274.195,-0.0497453,7.36764e-05,25,901,2
274.217,0.0022818,0.0035801,-0.0498362,-0.0550154,274.208,274.218,274.207,-0.0498775,4.42423e-05,25,902,2
274.219,0.0307045,0.00323048,-0.0499164,-0.0538521,274.212,274.22,274.211,-0.0499646,5.88989e-05,25,903,2
228.485,0.0160994,0.00209648,-0.128839,-0.0881163,228.478,228.486,228.478,-0.128915,5.88989e-05,25,904,2
228.477,0.0268659,0.00377874,-0.128697,-0.0997146,228.465,228.478,228.464,-0.128755,7.36764e-05,25,905,2
228.483,0.0410119,0.0027534,-0.128813,-0.0739253,228.475,228.484,228.474,-0.128881,4.42423e-05,25,906,2
228.476,0.0324132,0.00434931,-0.12869,-0.102728,228.464,228.477,228.462,-0.128752,5.90119e-05,25,907,2
274.22,0.00842357,0.00252751,-0.0499164,-0.0614155,274.212,274.22,274.211,-0.0499646,5.88989e-05,25,908,2
274.21,0.0165939,0.00450428,-0.0497209,-0.0637415,274.196,274.212,274.195,-0.0497453,7.36764e-05,25,909,2
274.217,0.031681,0.00331728,-0.0498362,-0.0450358,274.208,274.218,274.207,-0.0498775,4.42423e-05,25,910,2
274.209,0.0206978,0.00517976,-0.0497418,-0.0662562,274.195,274.211,274.193,-0.0497686,5.90119e-05,25,911,2
68.6418,0.0126985,0.000345824,-0.607233,-0.0686209,68.641,68.643,68.6409,-0.608348,0.0001176,25,912,2
68.6427,0.0209299,8.10213e-05,-0.607182,-0.0616575,68.6425,68.6437,68.6425,-0.608096,0.000146905,25,913,2
68.641,0.0385867,0.000519331,-0.607233,-0.113673,68.6396,68.6423,68.6396,-0.608612,8.82942e-05,25,914,2
68.6418,0.0316994,0.000288246,-0.607233,-0.062171,68.641,68.643,68.6409,-0.608348,0.0001176,25,915,2
159.952,0.00680221,0.000803434,-0.305416,-0.0531946,159.95,159.952,159.95,-0.305818,0.0001176,25,916,2
159.954,0.0182168,0.000249194,-0.305432,-0.053665,159.953,159.954,159.953,-0.305766,0.000146905,25,917,2
159.95,0.0317362,0.00117729,-0.305381,-0.0934919,159.947,159.951,159.947,-0.305863,8.82942e-05,25,918,2
159.952,0.0269863,0.000646196,-0.305416,-0.0463431,159.95,159.952,159.95,-0.305818,0.0001176,25,919,2
68.6374,0.0632368,0.00143041,-0.607121,-0.175066,68.6339,68.638,68.634,-0.607779,0.000118024,25,920,2
68.6376,0.067542,0.00146942,-0.607128,-0.166744,68.6344,68.6382,68.6344,-0.607744,0.000147353,25,921,2
68.6395,0.0333762,0.000889509,-0.607175,-0.142277,68.6373,68.64,68.6374,-0.607692,8.84847e-05,25,922,2
68.64,0.0617141,0.000811231,-0.607198,-0.132667,68.6383,68.6405,68.6383,-0.607732,0.000117798,25,923,2
159.942,0.0514887,0.00332196,-0.305332,-0.142186,159.933,159.943,159.932,-0.3055,0.000118024,25,924,2
159.942,0.0550214,0.00341665,-0.305326,-0.135004,159.935,159.943,159.933,-0.305483,0.000147353,25,925,2
159.946,0.0240632,0.00208817,-0.305371,-0.116173,159.941,159.947,159.941,-0.305516,8.84847e-05,25,926,2
159.948,0.0524328,0.0018874,-0.305385,-0.109101,159.944,159.949,159.943,-0.30554,0.000117798,25,927,2
68.6402,0.0318018,0.000628794,-0.607198,-0.142821,68.6381,68.6405,68.6383,-0.607732,0.000117798,25,928,2
68.6378,0.0479224,0.00113823,-0.607128,-0.173403,68.6342,68.6382,68.6344,-0.607744,0.000147353,25,929,2
68.6396,0.0601336,0.000822413,-0.607175,-0.133194,68.6373,68.64,68.6374,-0.607692,8.84847e-05,25,930,2
68.6375,0.056404,0.00131214,-0.607121,-0.177385,68.6338,68.638,68.634,-0.607779,0.000118024,25,931,2
159.948,0.0248187,0.00147205,-0.305385,-0.118475,159.943,159.949,159.943,-0.30554,0.000117798,25,932,2
159.943,0.038534,0.00264079,-0.305326,-0.140601,159.934,159.943,159.933,-0.305483,0.000147353,25,933,2
159.947,0.0516313,0.00193314,-0.305371,-0.106815,159.941,159.947,159.941,-0.305516,8.84847e-05,25,934,2
159.942,0.0457086,0.00303832,-0.305332,-0.144148,159.933,159.943,159.932,-0.3055,0.000118024,25,935,2
-250.997,-0.00429578,-0.0011854,-1.61509,-0.0241814,-250.995,-1.61483,-250.994,-250.998,0.000235199,25,936,2
-251.001,0.0130426,-0.000616015,-1.615,-0.0384224,-250.999,-1.61479,-250.999,-251.002,0.00029381,25,937,2
-250.995,0.0188415,-0.00168095,-1.61542,-0.0555052,-250.99,-1.61513,-250.99,-250.996,0.000176588,25,938,2
-250.997,0.0181288,-0.000932637,-1.61509,-0.0165693,-250.994,-1.61483,-250.994,-250.998,0.000235199,25,939,2
-68.268,0.0121179,-0.000335212,-1.10908,-0.0670881,-68.2672,-0.187151,-68.2671,-69.19,0.000235199,25,940,2
-68.2688,0.0206962,-4.48721e-05,-1.10907,-0.0609691,-68.2687,-0.188176,-68.2686,-69.1898,0.00029381,25,941,2
-68.2671,0.037906,-0.000532824,-1.10904,-0.111668,-68.2657,-0.18565,-68.2656,-69.1906,0.000176588,25,942,2
-68.268,0.0312269,-0.000309978,-1.10908,-0.0606015,-68.2672,-0.187151,-68.2671,-69.19,0.000235199,25,943,2
-250.981,0.0293157,-0.00512994,-1.61526,-0.0802608,-250.969,-1.6152,-250.967,-250.983,0.000236048,25,944,2
-250.982,0.03139,-0.0052912,-1.61526,-0.0752305,-250.971,-1.61521,-250.969,-250.984,0.000294706,25,945,2
-250.989,0.00655083,-0.00332847,-1.61511,-0.0670048,-250.981,-1.61505,-250.98,-250.99,0.000176969,25,946,2
-250.991,0.034977,-0.00293319,-1.61519,-0.0647132,-250.985,-1.61512,-250.984,-250.992,0.000235596,25,947,2
-68.2636,0.0620874,-0.00140687,-1.10907,-0.171787,-68.2601,-0.18928,-68.2598,-69.1836,0.000236048,25,948,2
-68.2637,0.0663171,-0.00144582,-1.10907,-0.163576,-68.2606,-0.189523,-68.2603,-69.1836,0.000294706,25,949,2
-68.2657,0.0324376,-0.00088739,-1.10909,-0.139686,-68.2635,-0.190198,-68.2634,-69.1847,0.000176969,25,950,2
-68.2662,0.0607819,-0.000817676,-1.10907,-0.130332,-68.2645,-0.190119,-68.2643,-69.1853,0.000235596,25,951,2
-250.992,0.0116458,-0.00228251,-1.61519,-0.0726331,-250.984,-1.61512,-250.984,-250.992,0.000235596,25,952,2
-250.983,0.020894,-0.00408504,-1.61526,-0.0787934,-250.97,-1.61521,-250.969,-250.984,0.000294706,25,953,2
-250.989,0.0355928,-0.00304815,-1.61511,-0.0571464,-250.981,-1.61505,-250.98,-250.99,0.000176969,25,954,2
-250.982,0.0256019,-0.0046769,-1.61526,-0.0815214,-250.969,-1.6152,-250.967,-250.983,0.000236048,25,955,2
-68.2663,0.0311198,-0.000611625,-1.10907,-0.140401,-68.2643,-0.190119,-68.2643,-69.1853,0.000235596,25,956,2
-68.264,0.046966,-0.00113707,-1.10907,-0.170145,-68.2604,-0.189523,-68.2603,-69.1836,0.000294706,25,957,2
-68.2657,0.0593011,-0.000799696,-1.10909,-0.130567,-68.2635,-0.190198,-68.2634,-69.1847,0.000176969,25,958,2
-68.2636,0.05532,-0.00131246,-1.10907,-0.174084,-68.26,-0.18928,-68.2598,-69.1836,0.000236048,25,959,2
308.554,-0.0127884,0.000926403,-0.013506,-0.00036368,308.549,308.554,308.549,-0.0136989,2.93999e-05,25,960,2
308.557,0.00579134,1.45745e-06,-0.0136335,-0.029115,308.557,308.558,308.555,-0.0137952,3.67262e-05,25,961,2
308.55,0.00562245,0.00153097,-0.0128175,-0.028266,308.542,308.55,308.542,-0.0130288,2.20736e-05,25,962,2
308.554,0.0119541,0.000906948,-0.013506,0.00455791,308.549,308.554,308.549,-0.0136989,2.93999e-05,25,963,2
331.452,-0.0151755,0.000798492,-0.00207298,0.00823571,331.449,331.454,331.447,-0.00225274,2.93999e-05,25,964,2
331.459,0.00419788,0.0014884,-0.00268547,-0.0211042,331.451,331.461,331.45,-0.00283463,3.67262e-05,25,965,2
331.451,0.0027967,0.000727967,-0.000459507,-0.01406,331.448,331.453,331.446,-0.000653443,2.20736e-05,25,966,2
331.452,0.0108686,0.000354823,-0.00207298,0.0134162,331.449,331.454,331.447,-0.00225274,2.93999e-05,25,967,2
308.535,0.00825318,0.00403399,-0.0131545,-0.035542,308.517,308.536,308.516,-0.0131663,2.9506e-05,25,968,2
308.536,0.00968995,0.0043883,-0.0132484,-0.0322313,308.519,308.537,308.518,-0.0132589,3.68382e-05,25,969,2
308.544,-0.0103369,0.00254401,-0.013105,-0.0296661,308.533,308.544,308.532,-0.0131348,2.21212e-05,25,970,2
308.546,0.0177107,0.00254756,-0.0128717,-0.0347471,308.537,308.547,308.536,-0.0129068,2.94495e-05,25,971,2
331.434,0.0032896,0.00415401,-0.00185612,-0.0126153,331.416,331.435,331.415,-0.00186352,2.9506e-05,25,972,2
331.435,0.00405952,0.00459986,-0.00189896,-0.0100222,331.417,331.436,331.416,-0.0019056,3.68382e-05,25,973,2
331.442,-0.0143538,0.00326926,-0.00284395,-0.0106162,331.429,331.443,331.428,-0.00286974,2.21212e-05,25,974,2
331.445,0.0135775,0.00262759,-0.00219544,-0.017093,331.436,331.446,331.435,-0.00222517,2.94495e-05,25,975,2
308.547,-0.0030654,0.0013916,-0.0128717,-0.0388797,308.537,308.547,308.536,-0.0129068,2.94495e-05,25,976,2
308.536,0.00338204,0.00280875,-0.0132484,-0.033486,308.518,308.537,308.518,-0.0132589,3.68382e-05,25,977,2
308.544,0.0209028,0.00206356,-0.013105,-0.0234521,308.533,308.544,308.532,-0.0131348,2.21212e-05,25,978,2
308.535,0.00597641,0.00356448,-0.0131545,-0.0359949,308.517,308.536,308.516,-0.0131663,2.9506e-05,25,979,2
331.446,-0.0060028,0.00161125,-0.00219544,-0.0209877,331.435,331.446,331.435,-0.00222517,2.94495e-05,25,980,2
331.435,8.48156e-05,0.00284684,-0.00189896,-0.0108128,331.417,331.436,331.416,-0.0019056,3.68382e-05,25,981,2
331.443,0.0173239,0.00249684,-0.00284395,-0.00431509,331.428,331.443,331.428,-0.00286974,2.21212e-05,25,982,2
331.434,0.00178848,0.00345463,-0.00185612,-0.0129139,331.415,331.435,331.415,-0.00186352,2.9506e-05,25,983,2
228.491,-0.00498861,0.000780815,-0.128945,-0.0335574,228.487,228.491,228.487,-0.129211,5.87998e-05,25,984,2
228.494,0.00897476,0.00021644,-0.128994,-0.0451192,228.493,228.494,228.492,-0.129217,7.34525e-05,25,985,2
228.488,0.014075,0.00106463,-0.128858,-0.0707597,228.483,228.489,228.483,-0.129165,4.41471e-05,25,986,2
228.491,0.0174507,0.000534703,-0.128945,-0.0290939,228.487,228.491,228.487,-0.129211,5.87998e-05,25,987,2
274.226,-0.00919621,0.000929666,-0.0501201,-0.0160042,274.223,274.227,274.223,-0.0503384,5.87998e-05,25,988,2
274.23,0.00714431,0.000276838,-0.0502292,-0.0359169,274.229,274.23,274.229,-0.0504127,7.34525e-05,25,989,2
274.223,0.00951319,0.00125763,-0.0499918,-0.0478261,274.217,274.224,274.217,-0.0502363,4.41471e-05,25,990,2
274.227,0.0146207,0.000607659,-0.0501201,-0.0112667,274.223,274.227,274.223,-0.0503384,5.87998e-05,25,991,2
228.477,0.0232933,0.00309133,-0.12869,-0.105172,228.463,228.477,228.462,-0.128752,5.90119e-05,25,992,2
228.477,0.0265908,0.0033638,-0.128697,-0.0997883,228.465,228.478,228.464,-0.128755,7.36764e-05,25,993,2
228.483,0.00144527,0.00193436,-0.128813,-0.0845271,228.475,228.484,228.474,-0.128881,4.42423e-05,25,994,2
228.485,0.0301156,0.00185935,-0.128839,-0.0843607,228.478,228.486,228.478,-0.128915,5.88989e-05,25,995,2
274.21,0.0152033,0.00369797,-0.0497418,-0.0677284,274.194,274.211,274.193,-0.0497686,5.90119e-05,25,996,2
274.211,0.0175,0.00402564,-0.0497209,-0.0634987,274.196,274.212,274.195,-0.0497453,7.36764e-05,25,997,2
274.218,-0.00491868,0.00232096,-0.0498362,-0.0548426,274.208,274.218,274.207,-0.0498775,4.42423e-05,25,998,2
274.22,0.0234127,0.00221912,-0.0499164,-0.0573992,274.211,274.22,274.211,-0.0499646,5.88989e-05,25,999,2
228.485,0.00446022,0.00115608,-0.128839,-0.0894639,228.478,228.486,228.478,-0.128915,5.88989e-05,25,1000,2
228.478,0.0136207,0.00208003,-0.128697,-0.102368,228.464,228.478,228.464,-0.128755,7.36764e-05,25,1001,2
228.483,0.0310119,0.00167005,-0.128813,-0.0786459,228.475,228.484,228.474,-0.128881,4.42423e-05,25,1002,2
228.477,0.0187272,0.00262733,-0.12869,-0.10608,228.463,228.477,228.462,-0.128752,5.90119e-05,25,1003,2
274.22,0.000335174,0.0014005,-0.0499164,-0.0619896,274.211,274.22,274.211,-0.0499646,5.88989e-05,25,1004,2
274.211,0.00813203,0.00247463,-0.0497209,-0.0653621,274.195,274.212,274.195,-0.0497453,7.36764e-05,25,1005,2
274.218,0.0255316,0.00201491,-0.0498362,-0.0487857,274.207,274.218,274.207,-0.0498775,4.42423e-05,25,1006,2
274.21,0.0118725,0.00312409,-0.0497418,-0.068391,274.193,274.211,274.193,-0.0497686,5.90119e-05,25,1007,2
68.6419,0.00363305,0.000232822,-0.607233,-0.0696914,68.6409,68.643,68.6409,-0.608348,0.0001176,25,1008,2
68.6428,0.0127029,5.09321e-05,-0.607182,-0.0638619,68.6425,68.6437,68.6425,-0.608096,0.000146905,25,1009,2
68.6411,0.0234193,0.000326465,-0.607233,-0.117737,68.6395,68.6423,68.6396,-0.608612,8.82942e-05,25,1010,2
68.6419,0.0233132,0.000165771,-0.607233,-0.0657767,68.6409,68.643,68.6409,-0.608348,0.0001176,25,1011,2
159.952,-0.000199283,0.000547192,-0.305416,-0.0536274,159.95,159.952,159.95,-0.305818,0.0001176,25,1012,2
159.954,0.0110563,0.00015665,-0.305432,-0.0555837,159.953,159.954,159.953,-0.305766,0.000146905,25,1013,2
159.95,0.0192616,0.000740076,-0.305381,-0.0968344,159.947,159.951,159.947,-0.305863,8.82942e-05,25,1014,2
159.952,0.0207064,0.000364084,-0.305416,-0.049469,159.95,159.952,159.95,-0.305818,0.0001176,25,1015,2
68.6377,0.0398452,0.000930881,-0.607121,-0.181822,68.6336,68.638,68.634,-0.607779,0.000118024,25,1016,2
68.6379,0.0451997,0.00101246,-0.607128,-0.174133,68.6341,68.6382,68.6344,-0.607744,0.000147353,25,1017,2
68.6397,0.0145198,0.000577147,-0.607175,-0.145416,68.6371,68.64,68.6374,-0.607692,8.84847e-05,25,1018,2
68.6402,0.0438695,0.000558845,-0.607198,-0.139588,68.6381,68.6405,68.6383,-0.607732,0.000117798,25,1019,2
159.942,0.0324892,0.00216427,-0.305332,-0.14769,159.933,159.943,159.932,-0.3055,0.000118024,25,1020,2
159.943,0.0369291,0.00235569,-0.305326,-0.141031,159.934,159.943,159.933,-0.305483,0.000147353,25,1021,2
159.947,0.00869364,0.00135422,-0.305371,-0.11832,159.941,159.947,159.941,-0.305516,8.84847e-05,25,1022,2
159.948,0.0377437,0.00129776,-0.305385,-0.115011,159.943,159.949,159.943,-0.30554,0.000117798,25,1023,2
68.6403,0.0128878,0.000346392,-0.607198,-0.14575,68.638,68.6405,68.6383,-0.607732,0.000117798,25,1024,2
68.638,0.0248787,0.000626782,-0.607128,-0.178175,68.6339,68.6382,68.6344,-0.607744,0.000147353,25,1025,2
68.6397,0.0422339,0.000499012,-0.607175,-0.139903,68.6371,68.64,68.6374,-0.607692,8.84847e-05,25,1026,2
68.6378,0.0327681,0.000793153,-0.607121,-0.18323,68.6335,68.638,68.634,-0.607779,0.000118024,25,1027,2
159.948,0.00914232,0.000814074,-0.305385,-0.1207,159.943,159.949,159.943,-0.30554,0.000117798,25,1028,2
159.943,0.0198523,0.00145218,-0.305326,-0.144428,159.933,159.943,159.933,-0.305483,0.000147353,25,1029,2
159.947,0.0372474,0.00117368,-0.305371,-0.112641,159.941,159.947,159.941,-0.305516,8.84847e-05,25,1030,2
159.942,0.0265025,0.00183397,-0.305332,-0.148881,159.933,159.943,159.932,-0.3055,0.000118024,25,1031,2
-250.998,-0.00741534,-0.000812898,-1.61509,-0.0234138,-250.994,-1.61483,-250.994,-250.998,0.000235199,25,1032,2
-251.001,0.00791593,-0.000387243,-1.615,-0.0397961,-250.999,-1.61479,-250.999,-251.002,0.00029381,25,1033,2
-250.995,0.0114354,-0.00105669,-1.61542,-0.0574896,-250.99,-1.61513,-250.99,-250.996,0.000176588,25,1034,2
-250.998,0.0158109,-0.000518554,-1.61509,-0.0187938,-250.994,-1.61483,-250.994,-250.998,0.000235199,25,1035,2
-68.2681,0.00325745,-0.000217485,-1.10908,-0.0680958,-68.2671,-0.187151,-68.2671,-69.19,0.000235199,25,1036,2
-68.2688,0.0125611,-2.82078e-05,-1.10907,-0.0631489,-68.2687,-0.188176,-68.2686,-69.1898,0.00029381,25,1037,2
-68.2672,0.0230062,-0.000334947,-1.10904,-0.11566,-68.2656,-0.18565,-68.2656,-69.1906,0.000176588,25,1038,2
-68.2681,0.0230497,-0.000188099,-1.10908,-0.0641589,-68.2671,-0.187151,-68.2671,-69.19,0.000235199,25,1039,2
-250.983,0.0185888,-0.0033462,-1.61526,-0.0834006,-250.968,-1.6152,-250.967,-250.983,0.000236048,25,1040,2
-250.983,0.0213019,-0.00364938,-1.61526,-0.0786841,-250.97,-1.61521,-250.969,-250.984,0.000294706,25,1041,2
-250.99,-0.0022511,-0.00216747,-1.61511,-0.0672867,-250.98,-1.61505,-250.98,-250.99,0.000176969,25,1042,2
-250.992,0.026231,-0.00201823,-1.61519,-0.068725,-250.984,-1.61512,-250.984,-250.992,0.000235596,25,1043,2
-68.2639,0.0391335,-0.000909688,-1.10907,-0.178421,-68.2598,-0.18928,-68.2598,-69.1836,0.000236048,25,1044,2
-68.264,0.0443987,-0.000991606,-1.10907,-0.170833,-68.2603,-0.189523,-68.2603,-69.1836,0.000294706,25,1045,2
-68.2659,0.0139273,-0.000581334,-1.10909,-0.142725,-68.2633,-0.190198,-68.2634,-69.1847,0.000176969,25,1046,2
-68.2664,0.0432501,-0.000569224,-1.10907,-0.137151,-68.2643,-0.190119,-68.2643,-69.1853,0.000235596,25,1047,2
-250.992,0.00206563,-0.0012605,-1.61519,-0.0735318,-250.984,-1.61512,-250.984,-250.992,0.000235596,25,1048,2
-250.984,0.0104307,-0.00224477,-1.61526,-0.0808465,-250.969,-1.61521,-250.969,-250.984,0.000294706,25,1049,2
-250.99,0.0278292,-0.00184104,-1.61511,-0.0613033,-250.98,-1.61505,-250.98,-250.99,0.000176969,25,1050,2
-250.983,0.0147422,-0.00281863,-1.61526,-0.0841657,-250.968,-1.6152,-250.967,-250.983,0.000236048,25,1051,2
-68.2665,0.0125275,-0.000329273,-1.10907,-0.143262,-68.2642,-0.190119,-68.2643,-69.1853,0.000235596,25,1052,2
-68.2642,0.0243558,-0.000632064,-1.10907,-0.17482,-68.2601,-0.189523,-68.2603,-69.1836,0.000294706,25,1053,2
-68.2659,0.0417513,-0.000479213,-1.10909,-0.137191,-68.2633,-0.190198,-68.2634,-69.1847,0.000176969,25,1054,2
-68.2639,0.0321242,-0.000799753,-1.10907,-0.179816,-68.2597,-0.18928,-68.2598,-69.1836,0.000236048,25,1055,2
308.554,-0.0127265,0.0003231,-0.013506,0.00130865,308.549,308.554,308.549,-0.0136989,2.93999e-05,25,1056,2
308.557,0.00194152,4.97114e-07,-0.0136335,-0.0296219,308.557,308.558,308.555,-0.0137952,3.67262e-05,25,1057,2
308.55,0.0018849,0.000522185,-0.0128175,-0.028758,308.542,308.55,308.542,-0.0130288,2.20736e-05,25,1058,2
308.554,0.0124468,0.000302222,-0.013506,0.0029586,308.549,308.554,308.549,-0.0136989,2.93999e-05,25,1059,2
331.452,-0.0139706,0.000434745,-0.00207298,0.010146,331.449,331.454,331.447,-0.00225274,2.93999e-05,25,1060,2
331.459,0.00140732,0.000507667,-0.00268547,-0.0214716,331.451,331.461,331.45,-0.00283463,3.67262e-05,25,1061,2
331.451,0.00093758,0.000248296,-0.000459507,-0.0143047,331.448,331.453,331.446,-0.000653444,2.20736e-05,25,1062,2
331.452,0.0125268,-4.13706e-05,-0.00207298,0.0118828,331.449,331.454,331.447,-0.00225274,2.93999e-05,25,1063,2
308.536,0.0035434,0.00154777,-0.0131545,-0.0363152,308.516,308.536,308.516,-0.0131663,2.9506e-05,25,1064,2
308.537,0.00540002,0.00207493,-0.0132484,-0.0332204,308.518,308.537,308.518,-0.0132589,3.68382e-05,25,1065,2
308.544,-0.0141207,0.00104357,-0.013105,-0.028063,308.532,308.544,308.532,-0.0131348,2.21212e-05,25,1066,2
308.547,0.0130237,0.00129204,-0.0128717,-0.0367615,308.537,308.547,308.536,-0.0129068,2.94495e-05,25,1067,2
331.434,0.00161482,0.00167285,-0.00185612,-0.0129368,331.415,331.435,331.415,-0.00186352,2.9506e-05,25,1068,2
331.436,0.00271663,0.00221058,-0.00189896,-0.0104663,331.416,331.436,331.416,-0.0019056,3.68382e-05,25,1069,2
331.443,-0.0156167,0.00139781,-0.00284395,-0.0086518,331.428,331.443,331.428,-0.00286974,2.21212e-05,25,1070,2
331.446,0.0112303,0.00126822,-0.00219544,-0.0187189,331.435,331.446,331.435,-0.00222517,2.94495e-05,25,1071,2
308.547,-0.00811399,5.15363e-05,-0.0128717,-0.0381469,308.536,308.547,308.536,-0.0129068,2.94495e-05,25,1072,2
308.537,-0.00101769,0.000379854,-0.0132484,-0.033641,308.518,308.537,308.518,-0.0132589,3.68382e-05,25,1073,2
308.544,0.0176628,0.000527988,-0.013105,-0.0259798,308.532,308.544,308.532,-0.0131348,2.21212e-05,25,1074,2
308.536,0.001227,0.00104393,-0.0131545,-0.0364671,308.516,308.536,308.516,-0.0131663,2.9506e-05,25,1075,2
331.446,-0.0086909,0.000177565,-0.00219544,-0.0200247,331.435,331.446,331.435,-0.00222517,2.94495e-05,25,1076,2
331.436,-0.00132726,0.000329353,-0.00189896,-0.0107314,331.416,331.436,331.416,-0.0019056,3.68382e-05,25,1077,2
331.443,0.0166124,0.000568901,-0.00284395,-0.00653939,331.428,331.443,331.428,-0.00286974,2.21212e-05,25,1078,2
331.434,8.75804e-05,0.000922317,-0.00185612,-0.0130369,331.415,331.435,331.415,-0.00186352,2.9506e-05,25,1079,2
228.491,-0.00932605,0.000356405,-0.128945,-0.0326192,228.487,228.491,228.487,-0.129211,5.87998e-05,25,1080,2
228.494,0.00300875,7.38236e-05,-0.128994,-0.0459046,228.492,228.494,228.492,-0.129217,7.34525e-05,25,1081,2
228.488,0.00471857,0.000363126,-0.128858,-0.0719915,228.483,228.489,228.483,-0.129165,4.41471e-05,25,1082,2
228.491,0.0135039,9.22941e-05,-0.128945,-0.0311228,228.487,228.491,228.487,-0.129211,5.87998e-05,25,1083,2
274.227,-0.0112065,0.000434955,-0.0501201,-0.0146669,274.223,274.227,274.223,-0.0503384,5.87998e-05,25,1084,2
274.23,0.0023951,9.44244e-05,-0.0502292,-0.0365421,274.229,274.23,274.229,-0.0504127,7.34525e-05,25,1085,2
274.224,0.00318925,0.000428955,-0.0499918,-0.0486586,274.217,274.224,274.217,-0.0502363,4.41471e-05,25,1086,2
274.227,0.013025,8.9398e-05,-0.0501201,-0.0130787,274.223,274.227,274.223,-0.0503384,5.87998e-05,25,1087,2
228.477,0.00936639,0.00122423,-0.12869,-0.107312,228.463,228.477,228.462,-0.128752,5.90119e-05,25,1088,2
228.478,0.0133383,0.00161722,-0.128697,-0.102405,228.464,228.478,228.464,-0.128755,7.36764e-05,25,1089,2
228.484,-0.00960009,0.000756517,-0.128813,-0.0839926,228.474,228.484,228.474,-0.128881,4.42423e-05,25,1090,2
228.485,0.0188467,0.000891606,-0.128839,-0.0875698,228.478,228.486,228.478,-0.128915,5.88989e-05,25,1091,2
274.211,0.00623291,0.00147136,-0.0497418,-0.0691334,274.193,274.211,274.193,-0.0497686,5.90119e-05,25,1092,2
274.211,0.00906203,0.00194078,-0.0497209,-0.0652397,274.195,274.212,274.195,-0.0497453,7.36764e-05,25,1093,2
274.218,-0.012035,0.000903662,-0.0498362,-0.0537314,274.207,274.218,274.207,-0.0498775,4.42423e-05,25,1094,2
274.22,0.0157203,0.00105654,-0.0499164,-0.0599641,274.211,274.22,274.211,-0.0499646,5.88989e-05,25,1095,2
228.486,-0.00725532,0.000136903,-0.128839,-0.0892807,228.478,228.486,228.478,-0.128915,5.88989e-05,25,1096,2
228.478,0.0001424,0.000239563,-0.128697,-0.10327,228.464,228.478,228.464,-0.128755,7.36764e-05,25,1097,2
228.484,0.0204812,0.000472878,-0.128813,-0.082021,228.474,228.484,228.474,-0.128881,4.42423e-05,25,1098,2
228.477,0.0047208,0.000726296,-0.12869,-0.107617,228.462,228.477,228.462,-0.128752,5.90119e-05,25,1099,2
274.22,-0.00775896,0.000178051,-0.0499164,-0.061503,274.211,274.22,274.211,-0.0499646,5.88989e-05,25,1100,2
274.212,-0.000469016,0.000276342,-0.0497209,-0.0658644,274.195,274.212,274.195,-0.0497453,7.36764e-05,25,1101,2
274.218,0.0189454,0.000575223,-0.0498362,-0.0517008,274.207,274.218,274.207,-0.0498775,4.42423e-05,25,1102,2
274.211,0.00284414,0.000855513,-0.0497418,-0.0693556,274.193,274.211,274.193,-0.0497686,5.90119e-05,25,1103,2
68.6419,-0.00549457,0.000103954,-0.607233,-0.0695693,68.6409,68.643,68.6409,-0.608348,0.0001176,25,1104,2
68.6428,0.0042586,1.7372e-05,-0.607182,-0.0649737,68.6425,68.6437,68.6425,-0.608096,0.000146905,25,1105,2
68.6411,0.00785122,0.000111351,-0.607233,-0.119786,68.6394,68.6423,68.6396,-0.608612,8.82942e-05,25,1106,2
68.6419,0.0145282,3.19988e-05,-0.607233,-0.068257,68.6409,68.643,68.6409,-0.608348,0.0001176,25,1107,2
159.952,-0.00719736,0.000253659,-0.305416,-0.0531426,159.95,159.952,159.95,-0.305818,0.0001176,25,1108,2
159.954,0.00370657,5.34305e-05,-0.305432,-0.0565513,159.953,159.954,159.953,-0.305766,0.000146905,25,1109,2
159.95,0.00645735,0.000252426,-0.305381,-0.0985201,159.947,159.951,159.947,-0.305863,8.82942e-05,25,1110,2
159.952,0.0140723,5.71599e-05,-0.305416,-0.0517485,159.95,159.952,159.95,-0.305818,0.0001176,25,1111,2
68.6379,0.0157718,0.000367918,-0.607121,-0.185467,68.6334,68.638,68.634,-0.607779,0.000118024,25,1112,2
68.6381,0.0220841,0.000486496,-0.607128,-0.178543,68.6339,68.6382,68.6344,-0.607744,0.000147353,25,1113,2
68.6398,-0.00458508,0.000225454,-0.607175,-0.146067,68.637,68.64,68.6374,-0.607692,8.84847e-05,25,1114,2
68.6403,0.0252743,0.000268375,-0.607198,-0.14412,68.638,68.6405,68.6383,-0.607732,0.000117798,25,1115,2
159.943,0.0129338,0.00085909,-0.305332,-0.150667,159.932,159.943,159.932,-0.3055,0.000118024,25,1116,2
159.943,0.0182049,0.00113419,-0.305326,-0.144645,159.933,159.943,159.933,-0.305483,0.000147353,25,1117,2
159.947,-0.00682465,0.000527981,-0.305371,-0.118443,159.941,159.947,159.941,-0.305516,8.84847e-05,25,1118,2
159.948,0.0224088,0.000619684,-0.305385,-0.118954,159.943,159.949,159.943,-0.30554,0.000117798,25,1119,2
68.6403,-0.0062467,4.0385e-05,-0.607198,-0.146186,68.638,68.6405,68.6383,-0.607732,0.000117798,25,1120,2
68.6381,0.00140935,7.2617e-05,-0.607128,-0.179898,68.6338,68.6382,68.6344,-0.607744,0.000147353,25,1121,2
68.6398,0.0236115,0.000141604,-0.607175,-0.144219,68.637,68.64,68.6374,-0.607692,8.84847e-05,25,1122,2
68.6379,0.00857147,0.000220118,-0.607121,-0.185939,68.6334,68.638,68.634,-0.607779,0.000118024,25,1123,2
159.948,-0.00669047,0.000100624,-0.305385,-0.120861,159.943,159.949,159.943,-0.30554,0.000117798,25,1124,2
159.943,0.000830793,0.000164601,-0.305326,-0.145784,159.933,159.943,159.933,-0.305483,0.000147353,25,1125,2
159.947,0.0222262,0.000334239,-0.305371,-0.116539,159.941,159.947,159.941,-0.305516,8.84847e-05,25,1126,2
159.943,0.00684285,0.000504635,-0.305332,-0.151067,159.932,159.943,159.932,-0.3055,0.000118024,25,1127,2
-250.998,-0.010408,-0.000385002,-1.61509,-0.0222456,-250.994,-1.61483,-250.994,-250.998,0.000235199,25,1128,2
-251.001,0.00265378,-0.000132082,-1.615,-0.0404888,-250.999,-1.61479,-250.999,-251.002,0.00029381,25,1129,2
-250.995,0.00383366,-0.000360418,-1.61542,-0.0584904,-250.99,-1.61513,-250.99,-250.996,0.000176588,25,1130,2
-250.998,0.0132226,-6.91313e-05,-1.61509,-0.0206968,-250.994,-1.61483,-250.994,-250.998,0.000235199,25,1131,2
-68.2681,-0.00565871,-8.49359e-05,-1.10908,-0.0679385,-68.2671,-0.187151,-68.2671,-69.19,0.000235199,25,1132,2
-68.2689,0.00421105,-9.62116e-06,-1.10907,-0.0642482,-68.2687,-0.188176,-68.2686,-69.1898,0.00029381,25,1133,2
-68.2673,0.00771272,-0.000114244,-1.10904,-0.117673,-68.2655,-0.18565,-68.2656,-69.1906,0.000176588,25,1134,2
-68.2681,0.014478,-5.34011e-05,-1.10908,-0.0666186,-68.2671,-0.187151,-68.2671,-69.19,0.000235199,25,1135,2
-250.983,0.00754379,-0.00133443,-1.61526,-0.0851134,-250.967,-1.6152,-250.967,-250.983,0.000236048,25,1136,2
-250.984,0.0108494,-0.00175886,-1.61526,-0.0807914,-250.969,-1.61521,-250.969,-250.984,0.000294706,25,1137,2
-250.99,-0.0110145,-0.000858767,-1.61511,-0.0664172,-250.98,-1.61505,-250.98,-250.99,0.000176969,25,1138,2
-250.992,0.0170362,-0.000965727,-1.61519,-0.0715609,-250.984,-1.61512,-250.984,-250.992,0.000235596,25,1139,2
-68.264,0.0155101,-0.000350517,-1.10907,-0.182003,-68.2596,-0.18928,-68.2598,-69.1836,0.000236048,25,1140,2
-68.2642,0.0217207,-0.00046982,-1.10907,-0.175167,-68.2601,-0.189523,-68.2603,-69.1836,0.000294706,25,1141,2
-68.266,-0.00482117,-0.000235661,-1.10909,-0.143322,-68.2632,-0.190198,-68.2634,-69.1847,0.000176969,25,1142,2
-68.2665,0.0249783,-0.00028198,-1.10907,-0.141623,-68.2642,-0.190119,-68.2643,-69.1853,0.000235596,25,1143,2
-250.992,-0.00754987,-0.000152585,-1.61519,-0.0731724,-250.984,-1.61512,-250.984,-250.992,0.000235596,25,1144,2
-250.984,-0.00021115,-0.000251528,-1.61526,-0.0815164,-250.969,-1.61521,-250.969,-250.984,0.000294706,25,1145,2
-250.99,0.0195895,-0.00050846,-1.61511,-0.0644113,-250.98,-1.61505,-250.98,-250.99,0.000176969,25,1146,2
-250.983,0.00363028,-0.00076828,-1.61526,-0.0853699,-250.967,-1.6152,-250.967,-250.983,0.000236048,25,1147,2
-68.2665,-0.00627913,-2.44806e-05,-1.10907,-0.143672,-68.2641,-0.190119,-68.2643,-69.1853,0.000235596,25,1148,2
-68.2643,0.00132891,-8.39835e-05,-1.10907,-0.176503,-68.26,-0.189523,-68.2603,-69.1836,0.000294706,25,1149,2
-68.266,0.0234872,-0.000126071,-1.10909,-0.141466,-68.2632,-0.190198,-68.2634,-69.1847,0.000176969,25,1150,2
-68.2641,0.00837872,-0.000232542,-1.10907,-0.18247,-68.2596,-0.18928,-68.2598,-69.1836,0.000236048,25,1151,2
-250.91,0.137071,-0.00487678,-1.6153,-0.0157997,-250.952,-1.61517,-250.909,-250.952,0.00167713,25,0,3
-68.244,0.292115,-0.00133524,-1.10911,-0.0336359,-68.2554,-0.183943,-68.2445,-69.1802,0.00167713,25,1,3
-250.78,0.214287,-0.0117336,-1.61512,-0.0246872,-250.88,-1.61482,-250.779,-250.882,0.00266631,25,2,3
-68.2084,0.456365,-0.00321174,-1.10918,-0.0525491,-68.236,-0.170956,-68.2096,-69.173,0.00266631,25,3,3
-250.91,0.137525,-0.00350022,-1.6153,-0.0112156,-250.952,-1.61518,-250.909,-250.952,0.00167713,25,4,3
-68.2439,0.29307,-0.00095935,-1.10911,-0.0239683,-68.2555,-0.183942,-68.2445,-69.1802,0.00167713,25,5,3
-250.779,0.214982,-0.00842694,-1.61512,-0.0175878,-250.881,-1.61482,-250.779,-250.882,0.00266631,25,6,3
-68.2082,0.457845,-0.00230787,-1.10918,-0.0374887,-68.2361,-0.170956,-68.2096,-69.173,0.00266631,25,7,3
68.6177,0.297575,0.00133716,-0.607235,-0.0342677,68.6292,68.6294,68.6192,-0.608877,0.000838566,25,8,3
159.896,0.242058,0.00311874,-0.305329,-0.0278779,159.923,159.923,159.896,-0.305739,0.000838566,25,9,3
68.5821,0.465188,0.00321975,-0.60706,-0.0535569,68.6097,68.6101,68.5856,-0.611001,0.00133315,25,10,3
159.813,0.378229,0.00749659,-0.30522,-0.0435556,159.877,159.878,159.813,-0.306201,0.00133315,25,11,3
68.6177,0.298548,0.000960201,-0.607236,-0.0244172,68.6293,68.6294,68.6192,-0.608878,0.000838566,25,12,3
159.896,0.242852,0.00223949,-0.305328,-0.0198507,159.923,159.923,159.896,-0.305738,0.000838566,25,13,3
68.5819,0.466694,0.00231352,-0.60706,-0.0382207,68.6099,68.6101,68.5856,-0.611001,0.00133315,25,14,3
159.812,0.379455,0.00538597,-0.305221,-0.0310656,159.877,159.878,159.813,-0.306201,0.00133315,25,15,3
228.41,0.172701,0.00445723,-0.128623,-0.0198993,228.449,228.449,228.41,-0.128764,0.000419283,25,16,3
274.13,0.111697,0.00533536,-0.049571,-0.0128795,274.176,274.177,274.13,-0.0496223,0.000419283,25,17,3
228.292,0.269794,0.0106861,-0.128872,-0.0310769,228.384,228.385,228.291,-0.129207,0.000666576,25,18,3
273.988,0.174654,0.0128071,-0.0502437,-0.0201271,274.098,274.1,273.987,-0.0503645,0.000666576,25,19,3
228.41,0.173271,0.00319987,-0.128623,-0.0141462,228.449,228.449,228.41,-0.128763,0.000419283,25,20,3
274.13,0.11207,0.0038301,-0.0495691,-0.00912906,274.177,274.177,274.13,-0.0496204,0.000419283,25,21,3
228.291,0.270669,0.00767753,-0.128872,-0.0221496,228.384,228.385,228.291,-0.129207,0.000666576,25,22,3
273.988,0.175221,0.00919894,-0.0502438,-0.0143286,274.099,274.1,273.987,-0.0503645,0.000666576,25,23,3
308.446,0.059142,0.00598998,-0.0128778,-0.00682969,308.497,308.498,308.445,-0.0128915,0.000209641,25,24,3
331.338,0.0204266,0.006384,-0.00186569,-0.0023705,331.393,331.394,331.338,-0.00186879,0.000209641,25,25,3
308.285,0.0926954,0.0144244,-0.0137744,-0.0106896,308.409,308.411,308.284,-0.0138053,0.000333288,25,26,3
331.167,0.0317418,0.0154646,-0.00213514,-0.00367403,331.299,331.301,331.165,-0.00214046,0.000333288,25,27,3
308.446,0.0593394,0.0042991,-0.0128831,-0.0048101,308.498,308.498,308.445,-0.0128969,0.000209641,25,28,3
331.338,0.0204955,0.00457953,-0.00186489,-0.0016224,331.394,331.394,331.338,-0.00186798,0.000209641,25,29,3
308.285,0.0929968,0.0103611,-0.013774,-0.00759387,308.41,308.411,308.284,-0.0138049,0.000333288,25,30,3
331.166,0.0318484,0.0110907,-0.00213332,-0.00258513,331.3,331.301,331.165,-0.00213864,0.000333288,25,31,3
-250.451,0.335425,-0.0291072,-1.6158,-0.0386229,-250.7,-1.61507,-250.448,-250.704,0.00830233,25,32,3
-68.1183,0.716407,-0.00796904,-1.10928,-0.0824551,-68.1867,-0.140948,-68.121,-69.1523,0.00830233,25,33,3
-249.834,0.490721,-0.0615793,-1.61445,-0.0566407,-250.362,-1.61289,-249.828,-250.369,0.0122607,25,34,3
-67.9502,1.04668,-0.0167728,-1.10793,-0.120648,-68.0942,-0.0848245,-67.9562,-69.1113,0.0122607,25,35,3
-250.449,0.336515,-0.0208681,-1.61581,-0.027557,-250.702,-1.61507,-250.448,-250.704,0.00830233,25,36,3
-68.1179,0.718728,-0.00572264,-1.10928,-0.0588929,-68.1872,-0.140948,-68.121,-69.1523,0.00830233,25,37,3
-249.831,0.492342,-0.0441633,-1.61445,-0.0401826,-250.366,-1.61289,-249.828,-250.369,0.0122607,25,38,3
-67.9493,1.0501,-0.0120472,-1.10793,-0.085867,-68.0951,-0.0848245,-67.9562,-69.1113,0.0122607,25,39,3
68.4914,0.729478,0.00801237,-0.60705,-0.0839687,68.5602,68.5611,68.5003,-0.616817,0.00415116,25,40,3
159.602,0.592984,0.0186135,-0.304829,-0.0682576,159.762,159.764,159.603,-0.30726,0.00415116,25,41,3
68.3231,1.06596,0.0168138,-0.608432,-0.122861,68.4674,68.4693,68.3418,-0.629114,0.00613036,25,42,3
159.209,0.867733,0.0392455,-0.306771,-0.100041,159.546,159.55,159.21,-0.311931,0.00613036,25,43,3
68.491,0.731843,0.00575154,-0.60705,-0.0599585,68.5606,68.5611,68.5003,-0.616817,0.00415116,25,44,3
159.601,0.594906,0.0133519,-0.304829,-0.048739,159.763,159.764,159.603,-0.30726,0.00415116,25,45,3
68.3222,1.06945,0.0120709,-0.608432,-0.0874582,68.4683,68.4693,68.3418,-0.629114,0.00613036,25,46,3
159.207,0.870577,0.0281672,-0.306771,-0.0711672,159.548,159.55,159.21,-0.311931,0.00613036,25,47,3
227.992,0.42264,0.026523,-0.128335,-0.0486551,228.22,228.223,227.99,-0.129164,0.00207558,25,48,3
273.629,0.273551,0.0317651,-0.0499424,-0.0314898,273.902,273.905,273.626,-0.0502405,0.00207558,25,49,3
227.429,0.619713,0.0561348,-0.13139,-0.0714783,227.91,227.917,227.424,-0.133158,0.00306518,25,50,3
272.952,0.401458,0.0674175,-0.052608,-0.046337,273.531,273.539,272.945,-0.053245,0.00306518,25,51,3
227.991,0.424011,0.019023,-0.128335,-0.0347324,228.221,228.223,227.99,-0.129164,0.00207558,25,52,3
273.627,0.274439,0.0227821,-0.0499424,-0.0224821,273.903,273.905,273.626,-0.0502405,0.00207558,25,53,3
227.426,0.62175,0.040293,-0.13139,-0.0507951,227.913,227.917,227.424,-0.133158,0.00306518,25,54,3
272.949,0.402784,0.048382,-0.052608,-0.0328739,273.535,273.539,272.945,-0.053245,0.00306518,25,55,3
307.882,0.145263,0.0357233,-0.0136445,-0.0167176,308.188,308.192,307.878,-0.0137202,0.00103779,25,56,3
330.734,0.0496939,0.0382886,-0.000887173,-0.00572069,331.062,331.067,330.729,-0.000899137,0.00103779,25,57,3
307.123,0.21086,0.0757816,-0.0138718,-0.0243855,307.773,307.782,307.114,-0.0140302,0.00153259,25,58,3
329.929,0.067781,0.0806892,0.00251104,-0.00793493,330.62,330.63,329.92,0.00248759,0.00153259,25,59,3
307.88,0.145733,0.025619,-0.0136446,-0.0119427,308.19,308.192,307.878,-0.0137203,0.00103779,25,60,3
330.732,0.049855,0.0274148,-0.000887275,-0.0040834,331.064,331.067,330.729,-0.000899239,0.00103779,25,61,3
307.119,0.211565,0.0543458,-0.0138718,-0.0172196,307.777,307.782,307.114,-0.0140302,0.00153259,25,62,3
329.924,0.0680267,0.0577182,0.00251103,-0.00544096,330.625,330.63,329.92,0.00248759,0.00153259,25,63,3
-248.375,0.733673,-0.138504,-1.61811,-0.0846402,-249.563,-1.61457,-248.363,-249.579,0.0363966,25,64,3
-67.5495,1.56418,-0.0379704,-1.10822,-0.18022,-67.8754,0.0252236,-67.5627,-68.9956,0.0363966,25,65,3
-245.72,1.0263,-0.278862,-1.63049,-0.119235,-248.109,-1.62348,-245.695,-248.142,0.0522301,25,66,3
-66.8055,2.24677,-0.0772896,-1.10017,-0.259735,-67.4691,0.21191,-66.8331,-68.7536,0.0522301,25,67,3
-248.368,0.736088,-0.0991834,-1.61811,-0.0601186,-249.57,-1.61457,-248.363,-249.579,0.0363966,25,68,3
-67.5474,1.56928,-0.0272714,-1.10822,-0.128399,-67.8775,0.0252236,-67.5627,-68.9956,0.0363966,25,69,3
-245.704,1.02985,-0.199508,-1.63049,-0.0832783,-248.125,-1.62348,-245.695,-248.142,0.0522301,25,70,3
-66.8012,2.25427,-0.0555757,-1.10017,-0.183579,-67.4735,0.21191,-66.8331,-68.7536,0.0522301,25,71,3
67.9216,1.59116,0.0380578,-0.60839,-0.183366,68.2481,68.2525,67.9639,-0.655077,0.0181983,25,72,3
158.278,1.2958,0.088322,-0.306996,-0.149325,159.036,159.046,158.28,-0.318676,0.0181983,25,73,3
67.1813,2.282,0.0771581,-0.612844,-0.26383,67.8433,67.8523,67.2683,-0.708879,0.0261151,25,74,3
156.555,1.85781,0.179447,-0.314018,-0.214911,158.095,158.115,156.559,-0.338091,0.0261151,25,75,3
67.9195,1.59636,0.027307,-0.60839,-0.130578,68.2502,68.2525,67.9639,-0.655077,0.0181983,25,76,3
158.273,1.30003,0.0633185,-0.306996,-0.106342,159.041,159.046,158.28,-0.318676,0.0181983,25,77,3
67.177,2.28962,0.0553852,-0.612844,-0.186435,67.8476,67.8523,67.2683,-0.708879,0.0261151,25,78,3
156.545,1.86404,0.128745,-0.314018,-0.15166,158.105,158.115,156.559,-0.338091,0.0261151,25,79,3
226.099,0.927671,0.126151,-0.133784,-0.106908,227.181,227.196,226.089,-0.13781,0.00909915,25,80,3
271.356,0.602957,0.151534,-0.0542558,-0.0695007,272.655,272.673,271.34,-0.0557191,0.00909915,25,81,3
223.644,1.32011,0.256425,-0.132028,-0.152925,225.843,225.873,223.622,-0.140226,0.0130575,25,82,3
268.441,0.835725,0.306107,-0.0379223,-0.0971397,271.064,271.1,268.408,-0.0407428,0.0130575,25,83,3
226.092,0.930703,0.09045,-0.133784,-0.076126,227.188,227.196,226.089,-0.13781,0.00909915,25,84,3
271.347,0.604931,0.108608,-0.0542558,-0.0494659,272.664,272.673,271.34,-0.0557191,0.00909915,25,85,3
223.63,1.32457,0.183883,-0.132028,-0.107553,225.858,225.873,223.622,-0.140226,0.0130575,25,86,3
268.423,0.838618,0.219202,-0.0379223,-0.0677687,271.082,271.1,268.408,-0.0407428,0.0130575,25,87,3
305.328,0.31886,0.170407,-0.0114495,-0.036798,306.788,306.808,305.309,-0.0118172,0.00454957,25,88,3
328.005,0.103477,0.182263,0.0132138,-0.01204,329.565,329.587,327.984,0.013163,0.00454957,25,89,3
302.096,0.411459,0.341141,0.0191474,-0.0483331,305.017,305.057,302.057,0.0185404,0.00652877,25,90,3
324.592,0.0982813,0.361398,0.0535294,-0.0123733,327.682,327.724,324.55,0.0534256,0.00652877,25,91,3
305.318,0.319912,0.122011,-0.0114495,-0.0261155,306.798,306.808,305.309,-0.0118172,0.00454957,25,92,3
327.995,0.103837,0.130203,0.0132138,-0.00837868,329.576,329.587,327.984,0.013163,0.00454957,25,93,3
302.077,0.412983,0.243793,0.0191474,-0.0328674,305.037,305.057,302.057,0.0185404,0.00652877,25,94,3
324.571,0.0988067,0.257529,0.0535293,-0.00703817,327.703,327.724,324.55,0.0534256,0.00652877,25,95,3
-239.589,1.52078,-0.600712,-1.65033,-0.176164,-244.733,-1.63431,-239.535,-244.803,0.151961,25,96,3
-65.1194,3.27135,-0.165921,-1.09101,-0.377538,-66.5435,0.536719,-65.1841,-68.1066,0.151961,25,97,3
-228.59,1.99594,-1.18653,-1.83141,-0.235298,-238.741,-1.8016,-228.482,-238.879,0.215295,25,98,3
-61.9924,4.76058,-0.336096,-1.15179,-0.553194,-64.8742,1.01366,-62.1477,-66.8844,0.215295,25,99,3
-239.555,1.52593,-0.429348,-1.65033,-0.123911,-244.768,-1.63431,-239.535,-244.803,0.151961,25,100,3
-65.1101,3.28215,-0.119197,-1.09101,-0.267925,-66.5528,0.536719,-65.1841,-68.1066,0.151961,25,101,3
-228.522,2.00349,-0.846073,-1.83141,-0.158611,-238.809,-1.8016,-228.482,-238.879,0.215295,25,102,3
-61.9735,4.77703,-0.240893,-1.15179,-0.386178,-64.8931,1.01366,-62.1477,-66.8844,0.215295,25,103,3
65.4954,3.32681,0.165552,-0.621816,-0.383968,66.9154,66.9347,65.6886,-0.834277,0.0759804,25,104,3
152.629,2.71427,0.385416,-0.328569,-0.31338,155.934,155.978,152.638,-0.382616,0.0759804,25,105,3
62.3814,4.86562,0.334563,-0.554138,-0.565264,65.2485,65.2875,62.8189,-1.03072,0.107648,25,106,3
145.418,3.86775,0.7755,-0.179819,-0.450459,152.061,152.151,145.443,-0.295239,0.107648,25,107,3
65.4861,3.33779,0.118746,-0.621816,-0.272437,66.9247,66.9347,65.6886,-0.834277,0.0759804,25,108,3
152.607,2.72326,0.27628,-0.328569,-0.222169,155.955,155.978,152.638,-0.382616,0.0759804,25,109,3
62.3625,4.88241,0.239503,-0.554138,-0.394833,65.2674,65.2875,62.8189,-1.03072,0.107648,25,110,3
145.374,3.88131,0.554789,-0.179819,-0.312757,152.105,152.151,145.443,-0.295239,0.107648,25,111,3
218.048,1.93974,0.549866,-0.140678,-0.224169,222.761,222.825,218.003,-0.159462,0.0379902,25,112,3
261.742,1.24365,0.657544,-0.0259876,-0.14408,267.374,267.45,261.672,-0.0326347,0.0379902,25,113,3
207.881,2.62843,1.09644,0.0611439,-0.307907,217.27,217.397,207.79,0.0256068,0.0538238,25,114,3
249.728,1.55381,1.29821,0.19515,-0.184361,260.835,260.986,249.587,0.184598,0.0538238,25,115,3
218.017,1.9462,0.393827,-0.140678,-0.158564,222.793,222.825,218.003,-0.159462,0.0379902,25,116,3
261.704,1.24786,0.470228,-0.0259876,-0.101313,267.411,267.45,261.672,-0.0326347,0.0379902,25,117,3
207.819,2.638,0.783409,0.0611439,-0.210791,217.332,217.397,207.79,0.0256068,0.0538238,25,118,3
249.654,1.55992,0.925969,0.19515,-0.122314,260.909,260.986,249.587,0.184598,0.0538238,25,119,3
294.571,0.629945,0.736282,0.0572082,-0.0735255,300.873,300.959,294.487,0.0557108,0.0189951,25,120,3
316.512,0.166845,0.786308,0.1189,-0.0203135,323.237,323.328,316.421,0.118675,0.0189951,25,121,3
281.228,0.643829,1.44255,0.280866,-0.0797771,293.562,293.73,281.063,0.278459,0.0269119,25,122,3
302.323,-0.0100832,1.53266,0.332781,-0.00461013,315.419,315.597,302.148,0.330161,0.0269119,25,123,3
294.529,0.632185,0.525642,0.0572082,-0.0507834,300.915,300.959,294.487,0.0557108,0.0189951,25,124,3
316.467,0.167602,0.560311,0.1189,-0.0126266,323.282,323.328,316.421,0.118675,0.0189951,25,125,3
281.146,0.647022,1.02722,0.280866,-0.0473606,293.645,293.73,281.063,0.278459,0.0269119,25,126,3
302.235,-0.00899009,1.08975,0.332781,0.00648869,315.507,315.597,302.148,0.330161,0.0269119,25,127,3
-203.328,3.13225,-2.48847,-1.84793,-0.360416,-224.638,-1.7565,-203.13,-224.927,0.620593,25,128,3
-55.1933,6.64926,-0.68461,-1.14883,-0.765239,-61.0602,1.85108,-55.603,-63.6504,0.620593,25,129,3
-158.335,4.48641,-4.84114,-1.57028,-0.511095,-199.864,-1.32493,-158.019,-200.425,0.873929,25,130,3
-43.0278,9.1776,-1.31924,-1.09957,-1.05098,-54.3446,3.31703,-44.0323,-57.7567,0.873929,25,131,3
-203.186,3.14238,-1.77847,-1.84793,-0.257581,-224.779,-1.7565,-203.13,-224.927,0.620593,25,132,3
-55.1546,6.67079,-0.490084,-1.14883,-0.546672,-61.0989,1.85108,-55.603,-63.6504,0.620593,25,133,3
-158.063,4.49991,-3.47368,-1.57028,-0.373981,-200.136,-1.32493,-158.019,-200.425,0.873929,25,134,3
-42.9536,9.20629,-0.946566,-1.09957,-0.759672,-54.4187,3.31703,-44.0323,-57.7567,0.873929,25,135,3
55.534,6.7709,0.685906,-0.561027,-0.779209,61.4112,61.5015,56.577,-1.69426,0.310296,25,136,3
129.438,5.51479,1.59593,-0.190504,-0.634678,143.111,143.296,129.557,-0.495453,0.310296,25,137,3
43.3046,9.34001,1.32411,-0.617072,-1.06967,54.6632,54.8893,45.5802,-3.11891,0.436965,25,138,3
100.897,7.66319,3.08604,-0.329553,-0.876722,127.37,127.728,101.286,-1.07573,0.436965,25,139,3
55.4952,6.79281,0.490858,-0.561027,-0.5567,61.45,61.5015,56.577,-1.69426,0.310296,25,140,3
129.347,5.53264,1.14179,-0.190504,-0.453398,143.201,143.296,129.557,-0.495453,0.310296,25,141,3
43.2302,9.36923,0.950053,-0.617072,-0.773025,54.7376,54.8893,45.5802,-3.11891,0.436965,25,142,3
100.724,7.68698,2.21428,-0.329553,-0.635137,127.544,127.728,101.286,-1.07573,0.436965,25,143,3
184.994,3.94242,2.273,0.0540188,-0.453734,204.464,204.727,184.838,-0.054076,0.155148,25,144,3
222.157,2.55348,2.71829,0.199484,-0.293857,245.435,245.751,221.881,0.159832,0.155148,25,145,3
144.145,5.56537,4.4073,-0.167575,-0.6353,181.953,182.463,143.916,-0.448808,0.218482,25,146,3
173.028,3.71367,5.28718,-0.100228,-0.422206,218.384,218.997,172.53,-0.214318,0.218482,25,147,3
184.865,3.95519,1.62543,0.0540188,-0.324113,204.592,204.727,184.838,-0.054076,0.155148,25,148,3
222.002,2.56174,1.9428,0.199484,-0.209948,245.589,245.751,221.881,0.159832,0.155148,25,149,3
143.897,5.58237,3.1624,-0.167575,-0.462656,182.201,182.463,143.916,-0.448808,0.218482,25,150,3
172.731,3.72468,3.79378,-0.100228,-0.310407,218.682,218.997,172.53,-0.214318,0.218482,25,151,3
250.098,1.34743,3.04907,0.298733,-0.155017,276.204,276.558,249.754,0.288463,0.0775741,25,152,3
268.777,0.45271,3.26694,0.363304,-0.0520191,296.744,297.123,268.4,0.361281,0.0775741,25,153,3
194.727,2.10628,5.9461,-0.0712697,-0.237294,245.736,246.424,194.075,-0.107996,0.109241,25,154,3
209.223,0.913881,6.38416,-0.0626074,-0.100219,263.989,264.729,208.494,-0.0720732,0.109241,25,155,3
249.924,1.35178,2.17818,0.298733,-0.110832,276.377,276.558,249.754,0.288463,0.0775741,25,156,3
268.591,0.45416,2.33291,0.363304,-0.0372998,296.93,297.123,268.4,0.361281,0.0775741,25,157,3
194.393,2.11211,4.26656,-0.0712697,-0.178181,246.07,246.424,194.075,-0.107996,0.109241,25,158,3
208.865,0.915873,4.58078,-0.0626074,-0.0799956,264.348,264.729,208.494,-0.0720732,0.109241,25,159,3
-116.138,5.15824,-7.08459,-1.41578,-0.598231,-176.931,-1.02598,-115.708,-177.751,0.531966,25,160,3
-31.6416,11.4114,-1.92083,-1.05601,-1.31722,-48.1211,4.93065,-33.4871,-52.2624,0.531966,25,161,3
-82.2995,5.94248,-8.87529,-1.57626,-0.682555,-158.43,-0.853127,-81.9947,-159.458,0.5953,25,162,3
-22.3595,12.5769,-2.41506,-1.1217,-1.44552,-43.0731,6.4507,-25.3872,-47.6177,0.5953,25,163,3
-115.741,5.17584,-5.08685,-1.41578,-0.419587,-177.328,-1.02598,-115.708,-177.751,0.531966,25,164,3
-31.5338,11.4491,-1.3786,-1.05601,-0.934346,-48.229,4.93065,-33.4871,-52.2624,0.531966,25,165,3
-81.8006,5.96146,-6.3672,-1.57626,-0.489881,-158.929,-0.853127,-81.9947,-159.458,0.5953,25,166,3
-22.2236,12.6173,-1.73216,-1.1217,-1.03589,-43.2089,6.4507,-25.3872,-47.6177,0.5953,25,167,3
31.8583,11.6431,1.92931,-0.667099,-1.34387,48.4112,48.6346,35.8873,-4.91951,0.265983,25,168,3
74.1744,9.38635,4.50069,-0.440408,-1.08434,112.79,113.311,74.9484,-1.73549,0.265983,25,169,3
22.5528,12.8105,2.42443,-0.600064,-1.47241,43.3473,43.6282,28.485,-6.81318,0.29765,25,170,3
52.5135,10.4401,5.6518,-0.295367,-1.1997,100.99,101.645,54.0819,-2.51844,0.29765,25,171,3
31.75,11.6815,1.3848,-0.667099,-0.953398,48.5195,48.6346,35.8873,-4.91951,0.265983,25,172,3
73.9218,9.41754,3.23068,-0.440408,-0.767685,113.043,113.311,74.9484,-1.73549,0.265983,25,173,3
22.4164,12.8516,1.73899,-0.600064,-1.05509,43.4837,43.6282,28.485,-6.81318,0.29765,25,174,3
52.1957,10.4736,4.05405,-0.295367,-0.860121,101.308,101.645,54.0819,-2.51844,0.29765,25,175,3
105.876,6.58265,6.43709,-0.31911,-0.761952,161.109,161.854,105.572,-0.761153,0.132991,25,176,3
126.961,4.14218,7.73595,-0.275319,-0.481411,193.343,194.238,126.218,-0.428484,0.132991,25,177,3
75.017,7.47638,8.07364,-0.13243,-0.858779,144.268,145.203,74.8942,-0.944825,0.148825,25,178,3
90.0281,4.86447,9.69026,-0.0854123,-0.55848,173.149,174.271,89.2078,-0.387566,0.148825,25,179,3
105.514,6.60481,4.62127,-0.31911,-0.5369,161.47,161.854,105.572,-0.761153,0.132991,25,180,3
126.527,4.15651,5.55455,-0.275319,-0.335939,193.776,194.238,126.218,-0.428484,0.132991,25,181,3
74.563,7.50026,5.79157,-0.13243,-0.61629,144.722,145.203,74.8942,-0.944825,0.148825,25,182,3
89.4833,4.87996,6.95178,-0.0854123,-0.401262,173.693,174.271,89.2078,-0.387566,0.148825,25,183,3
142.76,2.06097,8.71348,-0.262915,-0.242279,217.534,218.543,141.787,-0.298264,0.0664957,25,184,3
153.287,0.549721,9.36712,-0.266031,-0.0687384,233.672,234.756,152.209,-0.272065,0.0664957,25,185,3
101.29,2.60239,10.9041,-0.0867472,-0.298546,194.825,196.088,100.107,-0.166436,0.0744125,25,186,3
108.796,0.92695,11.7142,-0.112946,-0.106191,209.284,210.64,107.453,-0.12588,0.0744125,25,187,3
142.272,2.06863,6.25712,-0.262915,-0.164451,218.023,218.543,141.787,-0.298264,0.0664957,25,188,3
152.762,0.552568,6.72693,-0.266031,-0.0398276,234.197,234.756,152.209,-0.272065,0.0664957,25,189,3
100.677,2.61063,7.82311,-0.0867472,-0.214892,195.438,196.088,100.107,-0.166436,0.0744125,25,190,3
108.138,0.929856,8.40488,-0.112946,-0.0766887,209.942,210.64,107.453,-0.12588,0.0744125,25,191,3
-54.7795,6.32733,-10.3273,-1.54698,-0.731173,-143.366,-0.359558,-54.7708,-144.562,0.3214,25,192,3
-14.8894,13.677,-2.80752,-1.0902,-1.57644,-38.9694,8.43275,-19.497,-43.8846,0.3214,25,193,3
-34.8903,6.80229,-11.3811,-1.57184,-0.782395,-132.508,0.482249,-35.6261,-133.826,0.337234,25,194,3
-9.58221,14.3454,-3.08161,-0.96696,-1.64994,-36.0132,10.3562,-15.778,-41.1406,0.337234,25,195,3
-54.199,6.34839,-7.40919,-1.54698,-0.517277,-143.947,-0.359558,-54.7708,-144.562,0.3214,25,196,3
-14.7315,13.7217,-2.0137,-1.0902,-1.1221,-39.1272,8.43275,-19.497,-43.8846,0.3214,25,197,3
-34.2503,6.82422,-8.16357,-1.57184,-0.559699,-133.148,0.482249,-35.6261,-133.826,0.337234,25,198,3
-9.4089,14.3916,-2.21032,-0.96696,-1.18041,-36.1865,10.3562,-15.778,-41.1406,0.337234,25,199,3
15.0548,13.9222,2.81929,-0.602168,-1.60468,39.2365,39.5631,23.2742,-9.14808,0.1607,25,200,3
35.0329,11.3002,6.57189,-0.324174,-1.30292,91.4019,92.1631,37.8487,-3.9012,0.1607,25,201,3
9.45753,14.467,3.12524,-0.440971,-1.66401,36.2627,36.6307,19.778,-11.1295,0.168617,25,202,3
22.309,11.6889,7.2511,-0.184687,-1.34433,84.5024,85.3423,26.8294,-5.54508,0.168617,25,203,3
14.8963,13.9677,2.02228,-0.602168,-1.14223,39.395,39.5631,23.2742,-9.14808,0.1607,25,204,3
34.6633,11.3372,4.71411,-0.324174,-0.926671,91.7714,92.1631,37.8487,-3.9012,0.1607,25,205,3
9.28176,14.5136,2.24159,-0.440971,-1.19033,36.4384,36.6307,19.778,-11.1295,0.168617,25,206,3
21.9012,11.7265,5.20105,-0.184687,-0.961883,84.9102,85.3423,26.8294,-5.54508,0.168617,25,207,3
50.0337,8.01805,9.38924,-0.177743,-0.925331,130.57,131.657,50.2832,-1.51472,0.0803501,25,208,3
59.9971,5.12352,11.2739,-0.12683,-0.592562,156.703,158.009,59.1712,-0.606675,0.0803501,25,209,3
32.0408,8.30728,10.3418,-0.0594784,-0.955331,120.744,121.942,33.0485,-2.26519,0.0843085,25,210,3
38.5632,5.37028,12.4029,-0.0218075,-0.61759,144.944,146.381,37.9567,-0.852026,0.0843085,25,211,3
49.5058,8.04451,6.73536,-0.177743,-0.656693,131.098,131.657,50.2832,-1.51472,0.0803501,25,212,3
59.3634,5.14068,8.08813,-0.12683,-0.418373,157.337,158.009,59.1712,-0.606675,0.0803501,25,213,3
31.4592,8.33403,7.418,-0.0594784,-0.683696,121.326,121.942,33.0485,-2.26519,0.0843085,25,214,3
37.8657,5.38758,8.89638,-0.0218075,-0.441966,145.642,146.381,37.9567,-0.852026,0.0843085,25,215,3
67.4319,2.63052,12.6925,-0.114366,-0.306197,176.311,177.781,66.0765,-0.22894,0.040175,25,216,3
72.3421,0.812458,13.6432,-0.123901,-0.0974333,189.382,190.962,70.7779,-0.139739,0.040175,25,217,3
43.4522,2.84345,13.9508,-0.0182073,-0.327072,163.112,164.727,42.0476,-0.229328,0.0421542,25,218,3
46.686,0.98173,14.9857,-0.0443346,-0.113444,175.223,176.959,44.9811,-0.075129,0.0421542,25,219,3
66.7187,2.63972,9.10682,-0.114366,-0.212876,177.025,177.781,66.0765,-0.22894,0.040175,25,220,3
71.5756,0.815856,9.78994,-0.123901,-0.0629416,190.148,190.962,70.7779,-0.139739,0.040175,25,221,3
42.6677,2.85262,10.0069,-0.0182073,-0.233943,163.896,164.727,42.0476,-0.229328,0.0421542,25,222,3
45.8434,0.984998,10.7496,-0.0443346,-0.0802622,176.066,176.959,44.9811,-0.075129,0.0421542,25,223,3
-19.1646,7.17235,-12.222,-1.59538,-0.825997,-123.996,1.87701,-21.2214,-125.412,0.174555,25,224,3
-5.76257,14.9991,-3.27639,-1.12098,-1.72616,-33.8643,12.1169,-13.63,-39.2347,0.174555,25,225,3
-8.47193,6.92545,-12.798,-1.96392,-0.797221,-118.243,3.33661,-12.29,-119.725,0.178513,25,226,3
-2.84101,14.8952,-3.48119,-2.8317,-1.71393,-32.7009,12.4143,-12.4406,-38.3473,0.178513,25,227,3
-18.4774,7.19568,-8.76695,-1.59538,-0.58913,-124.683,1.87701,-21.2214,-125.412,0.174555,25,228,3
-5.57831,15.0476,-2.35004,-1.12098,-1.23318,-34.0485,12.1169,-13.63,-39.2347,0.174555,25,229,3
-7.75224,6.94791,-9.1799,-1.96392,-0.569185,-118.962,3.33661,-12.29,-119.725,0.178513,25,230,3
-2.64529,14.9433,-2.49724,-2.8317,-1.2249,-32.8966,12.4143,-12.4406,-38.3473,0.178513,25,231,3
4.73179,14.9723,3.38764,-0.542244,-1.72333,33.7866,34.1849,17.1995,-13.4082,0.0872773,25,232,3
12.2359,11.9143,7.7915,-0.178736,-1.37146,79.0618,79.9641,18.9896,-7.83476,0.0872773,25,233,3
1.73208,15.7879,3.48309,-2.82494,-1.81777,31.5984,32.0154,15.2756,-16.7854,0.0892564,25,234,3
4.81108,13.0783,8.15838,-1.82403,-1.50694,74.7685,75.7153,14.5171,-12.4769,0.0892564,25,235,3
4.54123,15.0208,2.42963,-0.542244,-1.23073,33.9772,34.1849,17.1995,-13.4082,0.0872773,25,236,3
11.7976,11.9529,5.58818,-0.178736,-0.979254,79.5001,79.9641,18.9896,-7.83476,0.0872773,25,237,3
1.53588,15.8391,2.49672,-2.82494,-1.29721,31.7946,32.0154,15.2756,-16.7854,0.0892564,25,238,3
4.3516,13.121,5.84841,-1.82403,-1.07348,75.228,75.7153,14.5171,-12.4769,0.0892564,25,239,3
18.2178,8.30441,11.0672,-0.0263066,-0.955954,113.139,114.421,20.4409,-3.531,0.0436386,25,240,3
22.3433,5.26783,13.2414,-0.00575912,-0.606826,135.916,137.45,22.1539,-1.35048,0.0436386,25,241,3
7.84821,9.08387,11.6195,-0.751755,-1.04731,107.485,108.833,12.8367,-7.08792,0.0446282,25,242,3
10.8248,5.53775,13.8451,-0.216219,-0.638226,129.557,131.16,12.0327,-3.02718,0.0446282,25,243,3
17.5953,8.33134,7.93773,-0.0263066,-0.682524,113.762,114.421,20.4409,-3.531,0.0436386,25,244,3
21.5986,5.28499,9.49765,-0.00575912,-0.432535,136.66,137.45,22.1539,-1.35048,0.0436386,25,245,3
7.19382,9.11364,8.32971,-0.751755,-0.74499,108.14,108.833,12.8367,-7.08792,0.0446282,25,246,3
10.0455,5.55586,9.92726,-0.216219,-0.454399,130.336,131.16,12.0327,-3.02718,0.0446282,25,247,3
25.4556,2.71699,14.8727,-0.00604522,-0.314268,153.021,154.746,24.0637,-0.338228,0.0218193,25,248,3
27.4527,0.907287,15.9671,-0.0522838,-0.10566,164.41,166.259,25.6558,-0.105037,0.0218193,25,249,3
13.6184,2.67478,15.4633,0.032471,-0.307701,146.249,148.037,12.4942,-0.631831,0.0223141,25,250,3
15.5726,0.902718,16.525,-0.138171,-0.106434,157.324,159.24,13.8722,-0.353987,0.0223141,25,251,3
24.6193,2.7261,10.668,-0.00604522,-0.221829,153.858,154.746,24.0637,-0.338228,0.0218193,25,252,3
26.555,0.910467,11.4539,-0.0522838,-0.0733732,165.307,166.259,25.6558,-0.105037,0.0218193,25,253,3
12.7488,2.68341,11.0915,0.032471,-0.220035,147.118,148.037,12.4942,-0.631831,0.0223141,25,254,3
14.6438,0.906137,11.8558,-0.138171,-0.0717229,158.253,159.24,13.8722,-0.353987,0.0223141,25,255,3
-1.22902,5.84987,-13.1552,-2.4416,-0.672798,-114.135,5.09622,-7.24401,-115.657,0.0922591,25,256,3
0.0703056,13.0818,-3.74,-5.81057,-1.50516,-32.0261,10.9194,-11.0503,-37.6354,0.0922591,25,257,3
2.41765,4.5436,-13.2826,-2.38451,-0.522299,-111.583,6.59699,-5.02629,-113.121,0.0932817,25,258,3
1.91075,9.81152,-3.89442,-7.54231,-1.12745,-31.5117,8.50696,-9.22007,-36.4301,0.0932817,25,259,3
-0.491973,5.86872,-9.44976,-2.4416,-0.481382,-114.872,5.09622,-7.24401,-115.657,0.0922591,25,260,3
0.279943,13.1241,-2.68608,-5.81057,-1.07589,-32.2358,10.9194,-11.0503,-37.6354,0.0922591,25,261,3
3.16177,4.5582,-9.54162,-2.38451,-0.37415,-112.327,6.59699,-5.02629,-113.121,0.0932817,25,262,3
2.12901,9.84295,-2.79714,-7.54231,-0.808348,-31.7299,8.50696,-9.22007,-36.4301,0.0932817,25,263,3
1.48894,15.675,3.25662,-8.80299,-1.80425,29.4505,29.8303,12.7352,-20.429,0.0461296,25,264,3
0.595181,15.7983,8.13827,-8.82122,-1.82099,70.4635,71.4186,11.9179,-21.0991,0.0461296,25,265,3
3.25724,11.6285,2.89422,-14.6672,-1.33365,28.1062,28.4479,8.89482,-20.6464,0.0466408,25,266,3
2.82713,13.5365,7.4631,-21.789,-1.54236,66.925,67.8596,8.50862,-28.405,0.0466408,25,267,3
1.30691,15.7258,2.34148,-8.80299,-1.28846,29.6325,29.8303,12.7352,-20.429,0.0461296,25,268,3
0.140003,15.85,5.84994,-8.82122,-1.29609,70.9187,71.4186,11.9179,-21.0991,0.0461296,25,269,3
3.09542,11.6653,2.08073,-14.6672,-0.960591,28.268,28.4479,8.89482,-20.6464,0.0466408,25,270,3
2.41071,13.5773,5.36958,-21.789,-1.12812,67.3414,67.8596,8.50862,-28.405,0.0466408,25,271,3
-1.17777,13.5368,11.9808,-6.07199,-1.56544,101.671,103.091,9.46139,-18.1307,0.0230648,25,272,3
-1.19206,8.93826,14.4987,-2.59873,-1.04146,123.256,124.984,6.58933,-12.1073,0.0230648,25,273,3
-0.660046,16.924,11.144,-27.7074,-1.9131,95.0885,96.6849,7.30294,-37.2668,0.0233204,25,274,3
-7.03124,20.8501,14.0144,-29.4679,-2.33408,113.377,116.044,5.96275,-45.1288,0.0233204,25,275,3
-1.84816,13.5821,8.61049,-6.07199,-1.10554,102.342,103.091,9.46139,-18.1307,0.0230648,25,276,3
-2.00395,8.96969,10.4171,-2.59873,-0.722316,124.068,124.984,6.58933,-12.1073,0.0230648,25,277,3
-1.28047,16.972,8.02494,-27.7074,-1.42536,95.7089,96.6849,7.30294,-37.2668,0.0233204,25,278,3
-7.81156,20.9048,10.0915,-29.4679,-1.77842,114.158,116.044,5.96275,-45.1288,0.0233204,25,279,3
2.28571,3.90396,16.0792,-0.676695,-0.46632,140.255,142.169,5.59575,-5.90138,0.0115324,25,280,3
5.02077,2.05186,17.0346,-1.61754,-0.248426,151.212,153.284,8.77274,-7.44193,0.0115324,25,281,3
-16.9786,22.7609,16.7459,-26.5077,-2.51703,126.85,131.149,6.07437,-53.8596,0.0116602,25,282,3
-26.278,17.3341,18.9598,-20.0946,-1.8543,136.336,142.955,6.59839,-59.5896,0.0116602,25,283,3
1.38359,3.91992,11.5439,-0.676695,-0.304266,141.157,142.169,5.59575,-5.90138,0.0115324,25,284,3
4.066,2.0609,12.2346,-1.61754,-0.156645,152.167,153.284,8.77274,-7.44193,0.0115324,25,285,3
-17.9128,22.8146,12.0493,-26.5077,-1.97176,127.785,131.149,6.07437,-53.8596,0.0116602,25,286,3
-27.3445,17.3628,13.5983,-20.0946,-1.56305,137.403,142.955,6.59839,-59.5896,0.0116602,25,287,3
-250.909,0.137813,-0.00210782,-1.6153,-0.00683101,-250.952,-1.61518,-250.909,-250.952,0.00167713,25,288,3
-68.2439,0.293691,-0.000574192,-1.10911,-0.01449,-68.2556,-0.183942,-68.2445,-69.1802,0.00167713,25,289,3
-250.779,0.215439,-0.00506133,-1.61512,-0.0106234,-250.882,-1.61482,-250.779,-250.882,0.00266631,25,290,3
-68.2081,0.458821,-0.00138538,-1.10918,-0.0225928,-68.2363,-0.170956,-68.2096,-69.173,0.00266631,25,291,3
-250.909,0.137961,-0.000707124,-1.6153,-0.00222676,-250.952,-1.61517,-250.909,-250.952,0.00167713,25,292,3
-68.2438,0.294006,-0.000191861,-1.10911,-0.00478044,-68.2556,-0.183943,-68.2445,-69.1802,0.00167713,25,293,3
-250.778,0.215676,-0.00169727,-1.61512,-0.00349414,-250.882,-1.61482,-250.779,-250.882,0.00266631,25,294,3
-68.208,0.45932,-0.000465727,-1.10918,-0.00746809,-68.2363,-0.170956,-68.2096,-69.173,0.00266631,25,295,3
68.6176,0.299181,0.000576808,-0.607236,-0.01476,68.6293,68.6294,68.6192,-0.608878,0.000838566,25,296,3
159.895,0.243365,0.00134612,-0.305328,-0.0120177,159.923,159.923,159.896,-0.305738,0.000838566,25,297,3
68.5818,0.46769,0.00138856,-0.60706,-0.0230221,68.61,68.6101,68.5856,-0.611001,0.00133315,25,298,3
159.812,0.380263,0.00323315,-0.305221,-0.0187289,159.878,159.878,159.813,-0.306201,0.00133315,25,299,3
68.6176,0.299502,0.000193313,-0.607235,-0.00486677,68.6294,68.6294,68.6192,-0.608877,0.000838566,25,300,3
159.895,0.243626,0.000451532,-0.305329,-0.00395556,159.923,159.923,159.896,-0.305739,0.000838566,25,301,3
68.5817,0.468199,0.000466542,-0.60706,-0.00762056,68.6101,68.6101,68.5856,-0.611001,0.00133315,25,302,3
159.812,0.380678,0.00108579,-0.30522,-0.00618582,159.878,159.878,159.813,-0.306201,0.00133315,25,303,3
228.41,0.173635,0.00192356,-0.128623,-0.00859114,228.449,228.449,228.41,-0.128763,0.000419283,25,304,3
274.13,0.112303,0.00230393,-0.0495691,-0.00557708,274.177,274.177,274.13,-0.0496204,0.000419283,25,305,3
228.291,0.271244,0.00460879,-0.128872,-0.0133693,228.385,228.385,228.291,-0.129207,0.000666576,25,306,3
273.987,0.175592,0.00552426,-0.0502438,-0.00866488,274.099,274.1,273.987,-0.0503645,0.000666576,25,307,3
228.41,0.173821,0.000644358,-0.128623,-0.00281293,228.449,228.449,228.41,-0.128764,0.000419283,25,308,3
274.13,0.112423,0.000772287,-0.049571,-0.00181003,274.177,274.177,274.13,-0.0496223,0.000419283,25,309,3
228.291,0.271542,0.0015478,-0.128872,-0.00440419,228.385,228.385,228.291,-0.129207,0.000666576,25,310,3
273.987,0.175787,0.00185333,-0.0502437,-0.00284203,274.1,274.1,273.987,-0.0503645,0.000666576,25,311,3
308.445,0.0594596,0.002576,-0.0128831,-0.00297639,308.498,308.498,308.445,-0.0128969,0.000209641,25,312,3
331.338,0.020532,0.0027712,-0.00186489,-0.00106669,331.394,331.394,331.338,-0.00186798,0.000209641,25,313,3
308.284,0.0931924,0.00622322,-0.013774,-0.00460961,308.411,308.411,308.284,-0.0138049,0.000333288,25,314,3
331.165,0.0319134,0.00667586,-0.00213332,-0.00159404,331.301,331.301,331.165,-0.00213864,0.000333288,25,315,3
308.445,0.0595274,0.000856775,-0.0128778,-0.000948309,308.498,308.498,308.445,-0.0128915,0.000209641,25,316,3
331.338,0.0205613,0.000933725,-0.00186569,-0.00031599,331.394,331.394,331.338,-0.00186879,0.000209641,25,317,3
308.284,0.0932977,0.00208877,-0.0137744,-0.00150103,308.411,308.411,308.284,-0.0138053,0.000333288,25,318,3
331.165,0.0319499,0.00222686,-0.00213514,-0.000500549,331.301,331.301,331.165,-0.00214046,0.000333288,25,319,3
-250.448,0.337233,-0.0125683,-1.61581,-0.0166028,-250.703,-1.61507,-250.448,-250.704,0.00830233,25,320,3
-68.1176,0.720266,-0.00343775,-1.10928,-0.0354237,-68.1875,-0.140948,-68.121,-69.1523,0.00830233,25,321,3
-249.828,0.493375,-0.0265845,-1.61445,-0.0244247,-250.368,-1.61289,-249.828,-250.369,0.0122607,25,322,3
-67.9487,1.05233,-0.00723483,-1.10793,-0.0519336,-68.0958,-0.0848245,-67.9562,-69.1113,0.0122607,25,323,3
-250.448,0.337597,-0.00418578,-1.6158,-0.00548922,-250.704,-1.61507,-250.448,-250.704,0.00830233,25,324,3
-68.1174,0.721041,-0.00115225,-1.10928,-0.0117602,-68.1876,-0.140948,-68.121,-69.1523,0.00830233,25,325,3
-249.827,0.493916,-0.00886524,-1.61445,-0.00789587,-250.369,-1.61289,-249.828,-250.369,0.0122607,25,326,3
-67.9483,1.05347,-0.00242695,-1.10793,-0.0170031,-68.0961,-0.0848245,-67.9562,-69.1113,0.0122607,25,327,3
68.4907,0.733408,0.00345723,-0.60705,-0.0360791,68.5609,68.5611,68.5003,-0.616817,0.00415116,25,328,3
159.601,0.596179,0.00803474,-0.304829,-0.0293289,159.764,159.764,159.603,-0.30726,0.00415116,25,329,3
68.3215,1.07171,0.0072545,-0.608432,-0.0528808,68.4689,68.4693,68.3418,-0.629114,0.00613036,25,330,3
159.206,0.872418,0.0169355,-0.306771,-0.0430747,159.55,159.55,159.21,-0.311931,0.00613036,25,331,3
68.4905,0.734197,0.00115705,-0.60705,-0.0119656,68.5611,68.5611,68.5003,-0.616817,0.00415116,25,332,3
159.6,0.59682,0.00268152,-0.304829,-0.00972627,159.764,159.764,159.603,-0.30726,0.00415116,25,333,3
68.3212,1.07288,0.00242896,-0.608432,-0.0173259,68.4693,68.4693,68.3418,-0.629114,0.00613036,25,334,3
159.205,0.873367,0.00566435,-0.306771,-0.0140765,159.55,159.55,159.21,-0.311931,0.00613036,25,335,3
227.99,0.424917,0.0114498,-0.128335,-0.0209093,228.222,228.223,227.99,-0.129164,0.00207558,25,336,3
273.626,0.275025,0.013713,-0.0499424,-0.0135317,273.905,273.905,273.626,-0.0502405,0.00207558,25,337,3
227.423,0.623061,0.0242223,-0.13139,-0.0307941,227.916,227.917,227.424,-0.133158,0.00306518,25,338,3
272.946,0.403629,0.0290941,-0.052608,-0.0199812,273.537,273.539,272.945,-0.053245,0.00306518,25,339,3
227.989,0.425375,0.00381925,-0.128335,-0.00692674,228.223,228.223,227.99,-0.129164,0.00207558,25,340,3
273.626,0.275321,0.0045737,-0.0499424,-0.0044852,273.905,273.905,273.626,-0.0502405,0.00207558,25,341,3
227.422,0.623741,0.0081047,-0.13139,-0.010022,227.917,227.917,227.424,-0.133158,0.00306518,25,342,3
272.945,0.404072,0.00972721,-0.052608,-0.0064602,273.538,273.539,272.945,-0.053245,0.00306518,25,343,3
307.878,0.146045,0.0154223,-0.0136446,-0.00718146,308.191,308.192,307.878,-0.0137203,0.00103779,25,344,3
330.73,0.0499615,0.0165452,-0.000887275,-0.00245891,331.066,331.067,330.729,-0.000899239,0.00103779,25,345,3
307.116,0.212003,0.0327168,-0.0138718,-0.0105425,307.78,307.782,307.114,-0.0140302,0.00153259,25,346,3
329.921,0.0681549,0.0348857,0.00251103,-0.00348485,330.628,330.63,329.92,0.00248759,0.00153259,25,347,3
307.878,0.146202,0.00514209,-0.0136445,-0.00238596,308.192,308.192,307.878,-0.0137202,0.00103779,25,348,3
330.73,0.0500154,0.00548193,-0.000887173,-0.000814601,331.066,331.067,330.729,-0.000899137,0.00103779,25,349,3
307.114,0.212239,0.0109079,-0.0138718,-0.00334581,307.781,307.782,307.114,-0.0140302,0.00153259,25,350,3
329.92,0.0682369,0.0115148,0.00251104,-0.000980155,330.629,330.63,329.92,0.00248759,0.00153259,25,351,3
-248.362,0.737638,-0.059844,-1.61811,-0.0364745,-249.576,-1.61457,-248.363,-249.579,0.0363966,25,352,3
-67.5459,1.57262,-0.0163786,-1.10822,-0.0775323,-67.8789,0.0252236,-67.5627,-68.9956,0.0363966,25,353,3
-245.694,1.03191,-0.120553,-1.63049,-0.0518559,-248.136,-1.62348,-245.695,-248.142,0.0522301,25,354,3
-66.7982,2.25895,-0.0333172,-1.10017,-0.112233,-67.4764,0.21191,-66.8331,-68.7536,0.0522301,25,355,3
-248.36,0.738444,-0.0198394,-1.61811,-0.0118474,-249.578,-1.61457,-248.363,-249.579,0.0363966,25,356,3
-67.5452,1.57432,-0.00549339,-1.10822,-0.0254879,-67.8796,0.0252236,-67.5627,-68.9956,0.0363966,25,357,3
-245.689,1.03309,-0.0398183,-1.63049,-0.0157449,-248.141,-1.62348,-245.695,-248.142,0.0522301,25,358,3
-66.7968,2.26145,-0.0112253,-1.10017,-0.0357491,-67.4778,0.21191,-66.8331,-68.7536,0.0522301,25,359,3
67.9181,1.59975,0.0164256,-0.60839,-0.0789061,68.2517,68.2525,67.9639,-0.655077,0.0181983,25,360,3
158.27,1.30279,0.0381378,-0.306996,-0.0642556,159.044,159.046,158.28,-0.318676,0.0181983,25,361,3
67.174,2.29437,0.0332932,-0.612844,-0.114015,67.8505,67.8523,67.2683,-0.708879,0.0261151,25,362,3
156.538,1.86789,0.0774522,-0.314018,-0.0929438,158.111,158.115,156.559,-0.338091,0.0261151,25,363,3
67.9173,1.60148,0.00548764,-0.60839,-0.0258914,68.2524,68.2525,67.9639,-0.655077,0.0181983,25,364,3
158.268,1.3042,0.012699,-0.306996,-0.0210885,159.046,159.046,158.28,-0.318676,0.0181983,25,365,3
67.1726,2.29691,0.0111413,-0.612844,-0.0362879,67.852,67.8523,67.2683,-0.708879,0.0261151,25,366,3
156.535,1.86997,0.0258678,-0.314018,-0.0294211,158.115,158.115,156.559,-0.338091,0.0261151,25,367,3
226.087,0.932677,0.0544686,-0.133784,-0.0460063,227.193,227.196,226.089,-0.13781,0.00909915,25,368,3
271.341,0.606212,0.0654422,-0.0542558,-0.0299166,272.669,272.673,271.34,-0.0557191,0.00909915,25,369,3
223.62,1.32728,0.110708,-0.132028,-0.0662588,225.867,225.873,223.622,-0.140226,0.0130575,25,370,3
268.412,0.840289,0.132263,-0.0379223,-0.0422727,271.093,271.1,268.408,-0.0407428,0.0130575,25,371,3
226.085,0.933689,0.0181459,-0.133784,-0.0150922,227.195,227.196,226.089,-0.13781,0.00909915,25,372,3
271.339,0.606871,0.0217693,-0.0542558,-0.00979566,272.672,272.673,271.34,-0.0557191,0.00909915,25,373,3
223.615,1.32877,0.0369031,-0.132028,-0.0206913,225.872,225.873,223.622,-0.140226,0.0130575,25,374,3
268.406,0.841255,0.043845,-0.0379223,-0.0127753,271.099,271.1,268.408,-0.0407428,0.0130575,25,375,3
305.312,0.320584,0.0736352,-0.0114495,-0.0158648,306.804,306.808,305.309,-0.0118172,0.00454957,25,376,3
327.988,0.104043,0.07886,0.0132138,-0.00524649,329.583,329.587,327.984,0.013163,0.00454957,25,377,3
302.064,0.413739,0.147569,0.0191474,-0.0213189,305.049,305.057,302.057,0.0185404,0.00652877,25,378,3
324.558,0.0988801,0.156585,0.0535293,-0.00591891,327.716,327.724,324.55,0.0534256,0.00652877,25,379,3
305.309,0.320935,0.0243964,-0.0114495,-0.00513631,306.808,306.808,305.309,-0.0118172,0.00454957,25,380,3
327.984,0.104163,0.0258928,0.0132138,-0.00156948,329.586,329.587,327.984,0.013163,0.00454957,25,381,3
302.058,0.414248,0.0485272,0.0191474,-0.00578663,305.056,305.057,302.057,0.0185404,0.00652877,25,382,3
324.551,0.0990555,0.0509078,0.0535294,-0.000560827,327.723,327.724,324.55,0.0534256,0.00652877,25,383,3
-239.533,1.52905,-0.259835,-1.65033,-0.0763227,-244.79,-1.63431,-239.535,-244.803,0.151961,25,384,3
-65.1039,3.28904,-0.0715607,-1.09101,-0.162773,-66.5591,0.536719,-65.1841,-68.1066,0.151961,25,385,3
-228.478,2.00705,-0.513905,-1.83141,-0.104254,-238.852,-1.8016,-228.482,-238.879,0.215295,25,386,3
-61.9609,4.78656,-0.145146,-1.15179,-0.240653,-64.9057,1.01366,-62.1477,-66.8844,0.215295,25,387,3
-239.521,1.53077,-0.0854878,-1.65033,-0.0238452,-244.801,-1.63431,-239.535,-244.803,0.151961,25,388,3
-65.1007,3.29265,-0.0240236,-1.09101,-0.0526889,-66.5622,0.536719,-65.1841,-68.1066,0.151961,25,389,3
-228.456,2.00957,-0.167517,-1.83141,-0.0272371,-238.875,-1.8016,-228.482,-238.879,0.215295,25,390,3
-61.9545,4.79205,-0.0482861,-1.15179,-0.0729183,-64.9121,1.01366,-62.1477,-66.8844,0.215295,25,391,3
65.4799,3.3448,0.071465,-0.621816,-0.165563,66.9309,66.9347,65.6886,-0.834277,0.0759804,25,392,3
152.593,2.72896,0.166433,-0.328569,-0.135188,155.97,155.978,152.638,-0.382616,0.0759804,25,393,3
62.35,4.89217,0.144584,-0.554138,-0.245827,65.2799,65.2875,62.8189,-1.03072,0.107648,25,394,3
145.345,3.88893,0.335263,-0.179819,-0.196531,152.134,152.151,145.443,-0.295239,0.107648,25,395,3
65.4768,3.34846,0.0238444,-0.621816,-0.0535518,66.934,66.9347,65.6886,-0.834277,0.0759804,25,396,3
152.585,2.73196,0.0553971,-0.328569,-0.0435843,155.977,155.978,152.638,-0.382616,0.0759804,25,397,3
62.3436,4.89778,0.047869,-0.554138,-0.0746631,65.2862,65.2875,62.8189,-1.03072,0.107648,25,398,3
145.33,3.89345,0.11071,-0.179819,-0.0582374,152.149,152.151,145.443,-0.295239,0.107648,25,399,3
217.997,1.95025,0.237562,-0.140678,-0.0968236,222.813,222.825,218.003,-0.159462,0.0379902,25,400,3
261.68,1.25041,0.284329,-0.0259876,-0.0624324,267.436,267.45,261.672,-0.0326347,0.0379902,25,401,3
207.778,2.64294,0.474344,0.0611439,-0.13534,217.373,217.397,207.79,0.0256068,0.0538238,25,402,3
249.606,1.56254,0.562185,0.19515,-0.0823424,260.957,260.986,249.587,0.184598,0.0538238,25,403,3
217.986,1.95241,0.0788064,-0.140678,-0.0309362,222.823,222.825,218.003,-0.159462,0.0379902,25,404,3
261.668,1.25182,0.0937517,-0.0259876,-0.0194821,267.448,267.45,261.672,-0.0326347,0.0379902,25,405,3
207.757,2.64614,0.155866,0.0611439,-0.0378067,217.393,217.397,207.79,0.0256068,0.0538238,25,406,3
249.581,1.56458,0.183461,0.19515,-0.0200288,260.982,260.986,249.587,0.184598,0.0538238,25,407,3
294.502,0.633405,0.318681,0.0572082,-0.0321678,300.942,300.959,294.487,0.0557108,0.0189951,25,408,3
316.438,0.167816,0.34069,0.1189,-0.00935788,323.311,323.328,316.421,0.118675,0.0189951,25,409,3
281.093,0.647668,0.625267,0.280866,-0.0374978,293.698,293.73,281.063,0.278459,0.0269119,25,410,3
302.179,-0.00976012,0.664882,0.332781,-0.00525973,315.563,315.597,302.148,0.330161,0.0269119,25,411,3
294.488,0.634153,0.104374,0.0572082,-0.00932777,300.956,300.959,294.487,0.0557108,0.0189951,25,412,3
316.423,0.168069,0.110758,0.1189,-0.00163784,323.326,323.328,316.421,0.118675,0.0189951,25,413,3
281.065,0.648734,0.202712,0.280866,-0.00494197,293.725,293.73,281.063,0.278459,0.0269119,25,414,3
302.15,-0.00939522,0.21427,0.332781,0.00588682,315.592,315.597,302.148,0.330161,0.0269119,25,415,3
-203.094,3.14912,-1.07642,-1.84793,-0.154786,-224.871,-1.7565,-203.13,-224.927,0.620593,25,416,3
-55.1291,6.68508,-0.295861,-1.14883,-0.328718,-61.1245,1.85108,-55.603,-63.6504,0.620593,25,417,3
-157.88,4.51023,-2.08939,-1.57028,-0.216575,-200.318,-1.32493,-158.019,-200.425,0.873929,25,418,3
-42.904,9.22668,-0.569381,-1.09957,-0.448489,-54.4684,3.31703,-44.0323,-57.7567,0.873929,25,419,3
-203.047,3.1525,-0.354053,-1.84793,-0.0515079,-224.919,-1.7565,-203.13,-224.927,0.620593,25,420,3
-55.1161,6.69226,-0.0979491,-1.14883,-0.109211,-61.1374,1.85108,-55.603,-63.6504,0.620593,25,421,3
-157.789,4.51474,-0.698118,-1.57028,-0.0788714,-200.409,-1.32493,-158.019,-200.425,0.873929,25,422,3
-42.8791,9.23626,-0.19022,-1.09957,-0.155925,-54.4932,3.31703,-44.0323,-57.7567,0.873929,25,423,3
55.4696,6.80736,0.296474,-0.561027,-0.334703,61.4756,61.5015,56.577,-1.69426,0.310296,25,424,3
129.288,5.54449,0.689931,-0.190504,-0.272635,143.261,143.296,129.557,-0.495453,0.310296,25,425,3
43.1803,9.38998,0.571488,-0.617072,-0.456518,54.7874,54.8893,45.5802,-3.11891,0.436965,25,426,3
100.608,7.70412,1.33192,-0.329553,-0.373649,127.66,127.728,101.286,-1.07573,0.436965,25,427,3
55.4566,6.81468,0.0980308,-0.561027,-0.111237,61.4886,61.5015,56.577,-1.69426,0.310296,25,428,3
129.257,5.55045,0.227878,-0.190504,-0.0905755,143.291,143.296,129.557,-0.495453,0.310296,25,429,3
43.1554,9.39973,0.190916,-0.617072,-0.158593,54.8124,54.8893,45.5802,-3.11891,0.436965,25,430,3
100.55,7.71206,0.444987,-0.329553,-0.131025,127.718,127.728,101.286,-1.07573,0.436965,25,431,3
184.78,3.96366,0.982885,0.0540188,-0.194916,204.677,204.727,184.838,-0.054076,0.155148,25,432,3
221.901,2.56723,1.1758,0.199484,-0.126222,245.69,245.751,221.881,0.159832,0.155148,25,433,3
143.732,5.595,1.90214,-0.167575,-0.269948,182.366,182.463,143.916,-0.448808,0.218482,25,434,3
172.532,3.73333,2.28187,-0.100228,-0.178416,218.881,218.997,172.53,-0.214318,0.218482,25,435,3
184.737,3.96792,0.324044,0.0540188,-0.0647371,204.72,204.727,184.838,-0.054076,0.155148,25,436,3
221.85,2.56999,0.386813,0.199484,-0.0419528,245.742,245.751,221.881,0.159832,0.155148,25,437,3
143.649,5.60068,0.635568,-0.167575,-0.0965611,182.449,182.463,143.916,-0.448808,0.218482,25,438,3
172.433,3.737,0.762476,-0.100228,-0.066137,218.98,218.997,172.53,-0.214318,0.218482,25,439,3
249.811,1.35468,1.31923,0.298733,-0.0665591,276.49,276.558,249.754,0.288463,0.0775741,25,440,3
268.47,0.455143,1.41381,0.363304,-0.022299,297.051,297.123,268.4,0.361281,0.0775741,25,441,3
194.169,2.11729,2.56626,-0.0712697,-0.0990284,246.294,246.424,194.075,-0.107996,0.109241,25,442,3
208.624,0.918479,2.75536,-0.0626074,-0.0402342,264.588,264.729,208.494,-0.0720732,0.109241,25,443,3
249.753,1.35613,0.433178,0.298733,-0.0221838,276.548,276.558,249.754,0.288463,0.0775741,25,444,3
268.408,0.455627,0.463513,0.363304,-0.00751647,297.113,297.123,268.4,0.361281,0.0775741,25,445,3
194.057,2.11924,0.857486,-0.0712697,-0.0396613,246.406,246.424,194.075,-0.107996,0.109241,25,446,3
208.504,0.919144,0.920588,-0.0626074,-0.0199233,264.709,264.729,208.494,-0.0720732,0.109241,25,447,3
-115.474,5.18633,-3.05647,-1.41578,-0.259585,-177.596,-1.02598,-115.708,-177.751,0.531966,25,448,3
-31.4614,11.4731,-0.82889,-1.05601,-0.568057,-48.3014,4.93065,-33.4871,-52.2624,0.531966,25,449,3
-81.4667,5.9744,-3.83086,-1.57626,-0.292436,-159.263,-0.853127,-81.9947,-159.458,0.5953,25,450,3
-22.1328,12.6445,-1.04256,-1.1217,-0.619854,-43.2997,6.4507,-25.3872,-47.6177,0.5953,25,451,3
-115.341,5.1922,-1.02395,-1.41578,-0.0801728,-177.729,-1.02598,-115.708,-177.751,0.531966,25,452,3
-31.4253,11.4857,-0.277228,-1.05601,-0.183537,-48.3375,4.93065,-33.4871,-52.2624,0.531966,25,453,3
-81.2995,5.98073,-1.27911,-1.57626,-0.098934,-159.43,-0.853127,-81.9947,-159.458,0.5953,25,454,3
-22.0873,12.658,-0.347771,-1.1217,-0.208466,-43.3452,6.4507,-25.3872,-47.6177,0.5953,25,455,3
31.6773,11.706,0.832511,-0.667099,-0.579502,48.5922,48.6346,35.8873,-4.91951,0.265983,25,456,3
73.7522,9.43718,1.94201,-0.440408,-0.468119,113.212,113.311,74.9484,-1.73549,0.265983,25,457,3
22.3253,12.8794,1.04657,-0.600064,-0.631412,43.5748,43.6282,28.485,-6.81318,0.29765,25,458,3
51.9831,10.4962,2.4397,-0.295367,-0.514313,101.521,101.645,54.0819,-2.51844,0.29765,25,459,3
31.641,11.7189,0.278529,-0.667099,-0.187349,48.6285,48.6346,35.8873,-4.91951,0.265983,25,460,3
73.6675,9.44759,0.649891,-0.440408,-0.150104,113.297,113.311,74.9484,-1.73549,0.265983,25,461,3
22.2796,12.8931,0.349197,-0.600064,-0.212293,43.6205,43.6282,28.485,-6.81318,0.29765,25,462,3
51.8766,10.5074,0.814139,-0.295367,-0.173275,101.627,101.645,54.0819,-2.51844,0.29765,25,463,3
105.272,6.61839,2.77735,-0.31911,-0.329795,161.713,161.854,105.572,-0.761153,0.132991,25,464,3
126.235,4.1648,3.33748,-0.275319,-0.209469,194.068,194.238,126.218,-0.428484,0.132991,25,465,3
74.2594,7.51654,3.48502,-0.13243,-0.367962,145.026,145.203,74.8942,-0.944825,0.148825,25,466,3
89.1188,4.89058,4.18266,-0.0854123,-0.239133,174.058,174.271,89.2078,-0.387566,0.148825,25,467,3
105.151,6.62579,0.929919,-0.31911,-0.103775,161.834,161.854,105.572,-0.761153,0.132991,25,468,3
126.089,4.16958,1.1181,-0.275319,-0.0633708,194.214,194.238,126.218,-0.428484,0.132991,25,469,3
74.1072,7.52451,1.16322,-0.13243,-0.12443,145.178,145.203,74.8942,-0.944825,0.148825,25,470,3
88.9362,4.89575,1.3965,-0.0854123,-0.0812386,174.24,174.271,89.2078,-0.387566,0.148825,25,471,3
141.943,2.0724,3.75898,-0.262915,-0.106966,218.352,218.543,141.787,-0.298264,0.0664957,25,472,3
152.408,0.553039,4.0408,-0.266031,-0.0326378,234.551,234.756,152.209,-0.272065,0.0664957,25,473,3
100.267,2.61635,4.70639,-0.0867472,-0.127702,195.848,196.088,100.107,-0.166436,0.0744125,25,474,3
107.697,0.931911,5.05591,-0.112946,-0.0453379,210.383,210.64,107.453,-0.12588,0.0744125,25,475,3
141.779,2.07496,1.25985,-0.262915,-0.0288039,218.515,218.543,141.787,-0.298264,0.0664957,25,476,3
152.232,0.55399,1.35465,-0.266031,-0.00360261,234.727,234.756,152.209,-0.272065,0.0664957,25,477,3
100.061,2.6191,1.57181,-0.0867472,-0.0436888,196.053,196.088,100.107,-0.166436,0.0744125,25,478,3
107.476,0.932881,1.68894,-0.112946,-0.015709,210.604,210.64,107.453,-0.12588,0.0744125,25,479,3
-53.8104,6.3616,-4.45749,-1.54698,-0.31578,-144.335,-0.359558,-54.7708,-144.562,0.3214,25,480,3
-14.6259,13.7508,-1.21196,-1.0902,-0.678543,-39.2328,8.43275,-19.497,-43.8846,0.3214,25,481,3
-33.8224,6.8389,-4.91292,-1.57184,-0.335829,-133.576,0.482249,-35.6261,-133.826,0.337234,25,482,3
-9.29304,14.4226,-1.33027,-0.96696,-0.708174,-36.3024,10.3562,-15.778,-41.1406,0.337234,25,483,3
-53.6158,6.36863,-1.48858,-1.54698,-0.100964,-144.53,-0.359558,-54.7708,-144.562,0.3214,25,484,3
-14.573,13.7657,-0.40433,-1.0902,-0.222254,-39.2857,8.43275,-19.497,-43.8846,0.3214,25,485,3
-33.6078,6.84622,-1.63935,-1.57184,-0.112175,-133.791,0.482249,-35.6261,-133.826,0.337234,25,486,3
-9.23494,14.438,-0.443823,-0.96696,-0.236623,-36.3605,10.3562,-15.778,-41.1406,0.337234,25,487,3
14.7903,13.9973,1.217,-0.602168,-0.690692,39.501,39.5631,23.2742,-9.14808,0.1607,25,488,3
34.4162,11.3612,2.83685,-0.324174,-0.561062,92.0186,92.1631,37.8487,-3.9012,0.1607,25,489,3
9.16426,14.5448,1.34912,-0.440971,-0.714259,36.5559,36.6307,19.778,-11.1295,0.168617,25,490,3
21.6286,11.7517,3.13013,-0.184687,-0.576964,85.1828,85.3423,26.8294,-5.54508,0.168617,25,491,3
14.7371,14.0125,0.406116,-0.602168,-0.226254,39.5542,39.5631,23.2742,-9.14808,0.1607,25,492,3
34.2923,11.3736,0.94673,-0.324174,-0.183197,92.1425,92.1631,37.8487,-3.9012,0.1607,25,493,3
9.10534,14.5604,0.450087,-0.440971,-0.238547,36.6148,36.6307,19.778,-11.1295,0.168617,25,494,3
21.4918,11.7643,1.04439,-0.184687,-0.192872,85.3195,85.3423,26.8294,-5.54508,0.168617,25,495,3
49.1527,8.0614,4.05289,-0.177743,-0.398944,131.451,131.657,50.2832,-1.51472,0.0803501,25,496,3
58.9392,5.1513,4.86614,-0.12683,-0.256199,157.761,158.009,59.1712,-0.606675,0.0803501,25,497,3
31.0703,8.35198,4.46432,-0.0594784,-0.409963,121.714,121.942,33.0485,-2.26519,0.0843085,25,498,3
37.3993,5.39917,5.354,-0.0218075,-0.265035,146.108,146.381,37.9567,-0.852026,0.0843085,25,499,3
48.9757,8.07024,1.35281,-0.177743,-0.129151,131.628,131.657,50.2832,-1.51472,0.0803501,25,500,3
58.7268,5.15703,1.6249,-0.12683,-0.0812611,157.973,158.009,59.1712,-0.606675,0.0803501,25,501,3
30.8754,8.36091,1.48958,-0.0594784,-0.13716,121.909,121.942,33.0485,-2.26519,0.0843085,25,502,3
37.1655,5.40495,1.78647,-0.0218075,-0.0886554,146.342,146.381,37.9567,-0.852026,0.0843085,25,503,3
66.241,2.64492,5.47811,-0.114366,-0.133497,177.502,177.781,66.0765,-0.22894,0.040175,25,504,3
71.0619,0.817091,5.88807,-0.123901,-0.0440874,190.662,190.962,70.7779,-0.139739,0.040175,25,505,3
42.1431,2.85875,6.02216,-0.0182073,-0.140401,164.421,164.727,42.0476,-0.229328,0.0421542,25,506,3
45.2798,0.987048,6.46877,-0.0443346,-0.0489925,176.63,176.959,44.9811,-0.075129,0.0421542,25,507,3
66.0019,2.64799,1.83001,-0.114366,-0.0397747,177.741,177.781,66.0765,-0.22894,0.040175,25,508,3
70.805,0.818225,1.96776,-0.123901,-0.00944736,190.919,190.962,70.7779,-0.139739,0.040175,25,509,3
41.8801,2.86182,2.00957,-0.0182073,-0.0468713,164.684,164.727,42.0476,-0.229328,0.0421542,25,510,3
44.9973,0.988139,2.15887,-0.0443346,-0.0156684,176.912,176.959,44.9811,-0.075129,0.0421542,25,511,3
-18.0178,7.21101,-5.27584,-1.59538,-0.355134,-125.143,1.87701,-21.2214,-125.412,0.174555,25,512,3
-5.45512,15.0798,-1.41436,-1.12098,-0.741476,-34.1717,12.1169,-13.63,-39.2347,0.174555,25,513,3
-7.271,6.96276,-5.52455,-1.96392,-0.342568,-119.444,3.33661,-12.29,-119.725,0.178513,25,514,3
-2.51435,14.9754,-1.50266,-2.8317,-0.736073,-33.0275,12.4143,-12.4406,-38.3473,0.178513,25,515,3
-17.7874,7.2188,-1.76062,-1.59538,-0.117249,-125.373,1.87701,-21.2214,-125.412,0.174555,25,516,3
-5.39335,15.096,-0.471879,-1.12098,-0.24638,-34.2335,12.1169,-13.63,-39.2347,0.174555,25,517,3
-7.02973,6.97026,-1.84345,-1.96392,-0.113552,-119.685,3.33661,-12.29,-119.725,0.178513,25,518,3
-2.44874,14.9915,-0.501581,-2.8317,-0.24494,-33.0932,12.4143,-12.4406,-38.3473,0.178513,25,519,3
4.41389,15.0529,1.46245,-0.542244,-0.740405,34.1045,34.1849,17.1995,-13.4082,0.0872773,25,520,3
11.5047,11.9785,3.36358,-0.178736,-0.589295,79.7929,79.9641,18.9896,-7.83476,0.0872773,25,521,3
1.4052,15.8729,1.50412,-2.82494,-0.781306,31.9253,32.0154,15.2756,-16.7854,0.0892564,25,522,3
4.04545,13.1489,3.52295,-1.82403,-0.648344,75.5341,75.7153,14.5171,-12.4769,0.0892564,25,523,3
4.35001,15.0691,0.487767,-0.542244,-0.245689,34.1684,34.1849,17.1995,-13.4082,0.0872773,25,524,3
11.3578,11.9914,1.1219,-0.178736,-0.195398,79.9399,79.9641,18.9896,-7.83476,0.0872773,25,525,3
1.33943,15.8901,0.500581,-2.82494,-0.258507,31.9911,32.0154,15.2756,-16.7854,0.0892564,25,526,3
3.89141,13.1632,1.17276,-1.82403,-0.213024,75.6882,75.7153,14.5171,-12.4769,0.0892564,25,527,3
17.1793,8.34915,4.77762,-0.0263066,-0.410773,114.178,114.421,20.4409,-3.531,0.0436386,25,528,3
21.1008,5.29623,5.71604,-0.00575912,-0.260995,137.158,137.45,22.1539,-1.35048,0.0436386,25,529,3
6.75776,9.13292,5.0175,-0.751755,-0.450953,108.576,108.833,12.8367,-7.08792,0.0446282,25,530,3
9.52556,5.56764,5.9778,-0.216219,-0.274673,130.856,131.16,12.0327,-3.02718,0.0446282,25,531,3
16.9706,8.35814,1.59369,-0.0263066,-0.136167,114.387,114.421,20.4409,-3.531,0.0436386,25,532,3
20.8511,5.30197,1.90712,-0.00575912,-0.0859542,137.408,137.45,22.1539,-1.35048,0.0436386,25,533,3
6.53838,9.14286,1.6704,-0.751755,-0.147334,108.795,108.833,12.8367,-7.08792,0.0446282,25,534,3
9.2643,5.57368,1.99177,-0.216219,-0.0900556,131.118,131.16,12.0327,-3.02718,0.0446282,25,535,3
24.06,2.73173,6.42017,-0.00604522,-0.135896,154.417,154.746,24.0637,-0.338228,0.0218193,25,536,3
25.9544,0.912255,6.89225,-0.0522838,-0.0460943,165.908,166.259,25.6558,-0.105037,0.0218193,25,537,3
12.1674,2.68918,6.67514,0.032471,-0.132103,147.7,148.037,12.4942,-0.631831,0.0223141,25,538,3
14.022,0.907746,7.1325,-0.138171,-0.0471653,158.875,159.24,13.8722,-0.353987,0.0223141,25,539,3
23.7796,2.73477,2.14225,-0.00604522,-0.0430589,154.697,154.746,24.0637,-0.338228,0.0218193,25,540,3
25.6535,0.913316,2.30051,-0.0522838,-0.0136688,166.209,166.259,25.6558,-0.105037,0.0218193,25,541,3
11.8759,2.69206,2.22723,0.032471,-0.04406,147.991,148.037,12.4942,-0.631831,0.0223141,25,542,3
13.7106,0.908888,2.38204,-0.138171,-0.0123052,159.186,159.24,13.8722,-0.353987,0.0223141,25,543,3
0.00510877,5.88135,-5.67405,-2.4416,-0.288758,-115.369,5.09622,-7.24401,-115.657,0.0922591,25,544,3
0.421179,13.1522,-1.61329,-5.81057,-0.646349,-32.377,10.9194,-11.0503,-37.6354,0.0922591,25,545,3
3.66373,4.56804,-5.72889,-2.38451,-0.224015,-112.829,6.59699,-5.02629,-113.121,0.0932817,25,546,3
2.27611,9.86425,-1.67985,-7.54231,-0.48333,-31.877,8.50696,-9.22007,-36.4301,0.0932817,25,547,3
0.252202,5.88764,-1.90415,-2.4416,-0.0965186,-115.616,5.09622,-7.24401,-115.657,0.0922591,25,548,3
0.491459,13.1663,-0.541022,-5.81057,-0.215231,-32.4473,10.9194,-11.0503,-37.6354,0.0922591,25,549,3
3.91319,4.57291,-1.92281,-2.38451,-0.0752289,-113.079,6.59699,-5.02629,-113.121,0.0932817,25,550,3
2.34928,9.87475,-0.563465,-7.54231,-0.162858,-31.9502,8.50696,-9.22007,-36.4301,0.0932817,25,551,3
1.18347,15.7595,1.40391,-8.80299,-0.775189,29.7559,29.8303,12.7352,-20.429,0.0461296,25,552,3
-0.16821,15.8836,3.50883,-8.82122,-0.783835,71.2269,71.4186,11.9179,-21.0991,0.0461296,25,553,3
2.98576,11.6909,1.24774,-14.6672,-0.570251,28.3777,28.4479,8.89482,-20.6464,0.0466408,25,554,3
2.12719,13.6084,3.21603,-21.789,-0.653731,67.6249,67.8596,8.50862,-28.405,0.0466408,25,555,3
1.12245,15.7764,0.472832,-8.80299,-0.257189,29.817,29.8303,12.7352,-20.429,0.0461296,25,556,3
-0.320807,15.9008,1.18066,-8.82122,-0.256679,71.3795,71.4186,11.9179,-21.0991,0.0461296,25,557,3
2.93151,11.7031,0.420092,-14.6672,-0.195589,28.4319,28.4479,8.89482,-20.6464,0.0466408,25,558,3
1.98758,13.622,1.08607,-21.789,-0.237702,67.7645,67.8596,8.50862,-28.405,0.0466408,25,559,3
-2.30163,13.6102,5.16607,-6.07199,-0.676738,102.795,103.091,9.46139,-18.1307,0.0230648,25,560,3
-2.55219,8.98724,6.2528,-2.59873,-0.454644,124.617,124.984,6.58933,-12.1073,0.0230648,25,561,3
-1.70506,17.0128,4.79986,-27.7074,-0.802129,96.1335,96.6849,7.30294,-37.2668,0.0233204,25,562,3
-8.34544,20.9581,6.03632,-29.4679,-0.96542,114.691,116.044,5.96275,-45.1288,0.0233204,25,563,3
-2.52638,13.6253,1.73707,-6.07199,-0.214861,103.02,103.091,9.46139,-18.1307,0.0230648,25,564,3
-2.82437,8.99773,2.10012,-2.59873,-0.134123,124.889,124.984,6.58933,-12.1073,0.0230648,25,565,3
-1.91306,17.0289,1.62645,-27.7074,-0.312282,96.3415,96.6849,7.30294,-37.2668,0.0233204,25,566,3
-8.60704,20.9763,2.04508,-29.4679,-0.407372,114.953,116.044,5.96275,-45.1288,0.0233204,25,567,3
0.777122,3.9261,6.93739,-0.676695,-0.20999,141.763,142.169,5.59575,-5.90138,0.0115324,25,568,3
3.42266,2.06371,7.34793,-1.61754,-0.113696,152.81,153.284,8.77274,-7.44193,0.0115324,25,569,3
-18.5492,22.8768,7.21588,-26.5077,-1.02301,128.421,131.149,6.07437,-53.8596,0.0116602,25,570,3
-28.0572,17.4183,8.18492,-20.0946,-0.716621,138.115,142.955,6.59839,-59.5896,0.0116602,25,571,3
0.474688,3.93143,2.32315,-0.676695,-0.0472394,142.066,142.169,5.59575,-5.90138,0.0115324,25,572,3
3.10257,2.06673,2.46442,-1.61754,-0.0215207,153.13,153.284,8.77274,-7.44193,0.0115324,25,573,3
-18.8624,22.8947,2.43757,-26.5077,-0.475393,128.734,131.149,6.07437,-53.8596,0.0116602,25,574,3
-28.4147,17.4279,2.73004,-20.0946,-0.424124,138.473,142.955,6.59839,-59.5896,0.0116602,25,575,3
-250.912,0.133836,-0.0101283,-1.6153,-0.0335559,-250.95,-1.61517,-250.909,-250.952,0.00167713,25,576,3
-68.2445,0.285225,-0.00277135,-1.10911,-0.0714767,-68.2549,-0.183943,-68.2445,-69.1802,0.00167713,25,577,3
-250.785,0.209232,-0.0243648,-1.61512,-0.0524461,-250.876,-1.61482,-250.779,-250.882,0.00266631,25,578,3
-68.2097,0.445602,-0.00667033,-1.10918,-0.111667,-68.2347,-0.170956,-68.2096,-69.173,0.00266631,25,579,3
-250.911,0.134885,-0.00886974,-1.6153,-0.0290703,-250.95,-1.61518,-250.909,-250.952,0.00167713,25,580,3
-68.2444,0.287434,-0.00242751,-1.10911,-0.0620165,-68.2551,-0.183942,-68.2445,-69.1802,0.00167713,25,581,3
-250.783,0.210847,-0.0213409,-1.61512,-0.0454982,-250.877,-1.61482,-250.779,-250.882,0.00266631,25,582,3
-68.2093,0.449034,-0.00584384,-1.10918,-0.0969286,-68.2351,-0.170956,-68.2096,-69.173,0.00266631,25,583,3
68.6183,0.290556,0.00277651,-0.607235,-0.0728158,68.6287,68.6294,68.6192,-0.608877,0.000838566,25,584,3
159.897,0.236349,0.00647647,-0.305329,-0.0592344,159.921,159.923,159.896,-0.305739,0.000838566,25,585,3
68.5834,0.454218,0.00668663,-0.60706,-0.113818,68.6084,68.6101,68.5856,-0.611001,0.00133315,25,586,3
159.816,0.369308,0.0155681,-0.30522,-0.0925517,159.874,159.878,159.813,-0.306201,0.00133315,25,587,3
68.6181,0.292807,0.00243177,-0.607236,-0.0631767,68.6288,68.6294,68.6192,-0.608878,0.000838566,25,588,3
159.897,0.238183,0.00567248,-0.305328,-0.0513794,159.922,159.923,159.896,-0.305738,0.000838566,25,589,3
68.583,0.457713,0.00585795,-0.60706,-0.0988096,68.6088,68.6101,68.5856,-0.611001,0.00133315,25,590,3
159.815,0.372154,0.013638,-0.305221,-0.0803287,159.875,159.878,159.813,-0.306201,0.00133315,25,591,3
228.412,0.168626,0.00925506,-0.128623,-0.042271,228.447,228.449,228.41,-0.128764,0.000419283,25,592,3
274.133,0.10906,0.0110794,-0.049571,-0.0273488,274.174,274.177,274.13,-0.0496223,0.000419283,25,593,3
228.296,0.26343,0.0221918,-0.128872,-0.0660262,228.379,228.385,228.291,-0.129207,0.000666576,25,594,3
273.993,0.170533,0.0265948,-0.0502437,-0.0427518,274.093,274.1,273.987,-0.0503645,0.000666576,25,595,3
228.412,0.169942,0.00810523,-0.128623,-0.0366415,228.447,228.449,228.41,-0.128763,0.000419283,25,596,3
274.132,0.109919,0.00970311,-0.0495691,-0.023679,274.175,274.177,274.13,-0.0496204,0.000419283,25,597,3
228.295,0.265462,0.0194406,-0.128872,-0.0572895,228.381,228.385,228.291,-0.129207,0.000666576,25,598,3
273.992,0.171852,0.0232953,-0.0502438,-0.037077,274.095,274.1,273.987,-0.0503645,0.000666576,25,599,3
308.448,0.0577445,0.0124285,-0.0128778,-0.0144908,308.495,308.498,308.445,-0.0128915,0.000209641,25,600,3
331.341,0.0199425,0.0132667,-0.00186569,-0.00501643,331.391,331.394,331.338,-0.00186879,0.000209641,25,601,3
308.291,0.0905071,0.0299547,-0.0137744,-0.0226973,308.403,308.411,308.284,-0.0138053,0.000333288,25,602,3
331.173,0.0309907,0.0321021,-0.00213514,-0.00778574,331.293,331.301,331.165,-0.00214046,0.000333288,25,603,3
308.448,0.0582039,0.0108812,-0.0128831,-0.0125143,308.496,308.498,308.445,-0.0128969,0.000209641,25,604,3
331.34,0.0201084,0.0116182,-0.00186489,-0.00428373,331.391,331.394,331.338,-0.00186798,0.000209641,25,605,3
308.29,0.09121,0.0262394,-0.013774,-0.0196674,308.405,308.411,308.284,-0.0138049,0.000333288,25,606,3
331.171,0.0312385,0.0281015,-0.00213332,-0.00672007,331.295,331.301,331.165,-0.00213864,0.000333288,25,607,3
-250.463,0.327514,-0.0604166,-1.6158,-0.0820743,-250.689,-1.61507,-250.448,-250.704,0.00830233,25,608,3
-68.1216,0.699516,-0.0165472,-1.10928,-0.17526,-68.1835,-0.140948,-68.121,-69.1523,0.00830233,25,609,3
-249.859,0.47913,-0.127827,-1.61445,-0.120208,-250.337,-1.61289,-249.828,-250.369,0.0122607,25,610,3
-67.957,1.02198,-0.0348295,-1.10793,-0.256235,-68.0874,-0.0848245,-67.9562,-69.1113,0.0122607,25,611,3
-250.459,0.330039,-0.0528824,-1.61581,-0.0712453,-250.692,-1.61507,-250.448,-250.704,0.00830233,25,612,3
-68.1205,0.704892,-0.014493,-1.10928,-0.152202,-68.1845,-0.140948,-68.121,-69.1523,0.00830233,25,613,3
-249.851,0.482885,-0.111901,-1.61445,-0.104102,-250.345,-1.61289,-249.828,-250.369,0.0122607,25,614,3
-67.9549,1.02991,-0.0305082,-1.10793,-0.222198,-68.0895,-0.0848245,-67.9562,-69.1113,0.0122607,25,615,3
68.4947,0.712277,0.0166358,-0.60705,-0.178466,68.5569,68.5611,68.5003,-0.616817,0.00415116,25,616,3
159.61,0.579001,0.0386401,-0.304829,-0.145074,159.754,159.764,159.603,-0.30726,0.00415116,25,617,3
68.3299,1.0408,0.0349108,-0.608432,-0.260945,68.4606,68.4693,68.3418,-0.629114,0.00613036,25,618,3
159.225,0.847251,0.0814808,-0.306771,-0.212447,159.53,159.55,159.21,-0.311931,0.00613036,25,619,3
68.4937,0.717756,0.0145684,-0.60705,-0.15497,68.5579,68.5611,68.5003,-0.616817,0.00415116,25,620,3
159.608,0.583455,0.0338286,-0.304829,-0.125973,159.757,159.764,159.603,-0.30726,0.00415116,25,621,3
68.3278,1.04888,0.0305736,-0.608432,-0.226301,68.4627,68.4693,68.3418,-0.629114,0.00613036,25,622,3
159.22,0.85384,0.0713504,-0.306771,-0.184191,159.535,159.55,159.21,-0.311931,0.00613036,25,623,3
228.003,0.412673,0.0550578,-0.128335,-0.103404,228.209,228.223,227.99,-0.129164,0.00207558,25,624,3
273.642,0.267101,0.0659392,-0.0499424,-0.066926,273.889,273.905,273.626,-0.0502405,0.00207558,25,625,3
227.451,0.605082,0.116549,-0.13139,-0.151756,227.888,227.917,227.424,-0.133158,0.00306518,25,626,3
272.98,0.391975,0.139968,-0.052608,-0.0983414,273.503,273.539,272.945,-0.053245,0.00306518,25,627,3
227.999,0.41585,0.0481994,-0.128335,-0.0897798,228.212,228.223,227.99,-0.129164,0.00207558,25,628,3
273.638,0.269156,0.0577248,-0.0499424,-0.0581112,273.893,273.905,273.626,-0.0502405,0.00207558,25,629,3
227.444,0.609801,0.102062,-0.13139,-0.131515,227.895,227.917,227.424,-0.133158,0.00306518,25,630,3
272.971,0.395047,0.122561,-0.052608,-0.0851665,273.512,273.539,272.945,-0.053245,0.00306518,25,631,3
307.896,0.141838,0.0741543,-0.0136445,-0.0355352,308.174,308.192,307.878,-0.0137202,0.00103779,25,632,3
330.749,0.048522,0.0794499,-0.000887173,-0.0121581,331.047,331.067,330.729,-0.000899138,0.00103779,25,633,3
307.154,0.205873,0.157307,-0.0138718,-0.0516996,307.742,307.782,307.114,-0.0140302,0.00153259,25,634,3
329.962,0.0661654,0.167394,0.00251104,-0.0167142,330.588,330.63,329.92,0.00248759,0.00153259,25,635,3
307.892,0.142927,0.0649144,-0.0136446,-0.0308625,308.178,308.192,307.878,-0.0137203,0.00103779,25,636,3
330.745,0.0488955,0.0695065,-0.000887275,-0.0105559,331.051,331.067,330.729,-0.000899239,0.00103779,25,637,3
307.144,0.207508,0.137705,-0.0138718,-0.0446871,307.752,307.782,307.114,-0.0140302,0.00153259,25,638,3
329.951,0.0667345,0.146389,0.00251103,-0.0142737,330.598,330.63,329.92,0.00248759,0.00153259,25,639,3
-248.432,0.716348,-0.287408,-1.61811,-0.17968,-249.506,-1.61457,-248.363,-249.579,0.0363966,25,640,3
-67.5649,1.52728,-0.0788465,-1.10822,-0.382845,-67.86,0.0252236,-67.5627,-68.9956,0.0363966,25,641,3
-245.833,1.00196,-0.578538,-1.63049,-0.252174,-247.996,-1.62348,-245.695,-248.142,0.0522301,25,642,3
-66.8368,2.19365,-0.160537,-1.10017,-0.550776,-67.4378,0.21191,-66.8331,-68.7536,0.0522301,25,643,3
-248.414,0.721944,-0.251452,-1.61811,-0.155683,-249.524,-1.61457,-248.363,-249.579,0.0363966,25,644,3
-67.5601,1.5391,-0.0690629,-1.10822,-0.332133,-67.8648,0.0252236,-67.5627,-68.9956,0.0363966,25,645,3
-245.797,1.01017,-0.505973,-1.63049,-0.216988,-248.032,-1.62348,-245.695,-248.142,0.0522301,25,646,3
-66.827,2.21102,-0.140681,-1.10017,-0.476249,-67.4476,0.21191,-66.8331,-68.7536,0.0522301,25,647,3
67.937,1.55362,0.0790096,-0.60839,-0.389485,68.2327,68.2525,67.9639,-0.655077,0.0181983,25,648,3
158.314,1.26522,0.183324,-0.306996,-0.317183,159,159.046,158.28,-0.318676,0.0181983,25,649,3
67.2125,2.22804,0.160199,-0.612844,-0.559433,67.812,67.8523,67.2683,-0.708879,0.0261151,25,650,3
156.628,1.81387,0.372533,-0.314018,-0.455565,158.022,158.115,156.559,-0.338091,0.0261151,25,651,3
67.9322,1.56566,0.0691786,-0.60839,-0.337828,68.2375,68.2525,67.9639,-0.655077,0.0181983,25,652,3
158.303,1.27503,0.16046,-0.306996,-0.275121,159.011,159.046,158.28,-0.318676,0.0181983,25,653,3
67.2027,2.2457,0.140289,-0.612844,-0.483696,67.8219,67.8523,67.2683,-0.708879,0.0261151,25,654,3
156.605,1.8283,0.326169,-0.314018,-0.393669,158.045,158.115,156.559,-0.338091,0.0261151,25,655,3
226.15,0.90578,0.261851,-0.133784,-0.227079,227.13,227.196,226.089,-0.13781,0.00909915,25,656,3
271.417,0.588727,0.314511,-0.0542558,-0.147608,272.594,272.673,271.34,-0.0557191,0.00909915,25,657,3
223.748,1.28885,0.532279,-0.132028,-0.323925,225.739,225.873,223.622,-0.140226,0.0130575,25,658,3
268.565,0.815896,0.635199,-0.0379223,-0.205393,270.94,271.1,268.408,-0.0407428,0.0130575,25,659,3
226.134,0.912804,0.229205,-0.133784,-0.196956,227.146,227.196,226.089,-0.13781,0.00909915,25,660,3
271.398,0.593299,0.275257,-0.0542558,-0.128002,272.613,272.673,271.34,-0.0557191,0.00909915,25,661,3
223.715,1.2992,0.465943,-0.132028,-0.279524,225.772,225.873,223.622,-0.140226,0.0130575,25,662,3
268.525,0.822598,0.555729,-0.0379223,-0.176651,270.98,271.1,268.408,-0.0407428,0.0130575,25,663,3
305.397,0.311329,0.353597,-0.0114495,-0.0781027,306.719,306.808,305.309,-0.0118172,0.00454957,25,664,3
328.079,0.10102,0.377999,0.0132138,-0.0254434,329.492,329.587,327.984,0.013163,0.00454957,25,665,3
302.234,0.40163,0.70756,0.0191474,-0.101626,304.879,305.057,302.057,0.0185404,0.00652877,25,666,3
324.738,0.0958254,0.749075,0.0535294,-0.0250957,327.536,327.724,324.55,0.0534256,0.00652877,25,667,3
305.375,0.313766,0.309341,-0.0114495,-0.0676489,306.741,306.808,305.309,-0.0118172,0.00454957,25,668,3
328.055,0.101855,0.330392,0.0132138,-0.0218605,329.515,329.587,327.984,0.013163,0.00454957,25,669,3
302.19,0.405159,0.618541,0.0191474,-0.0864912,304.923,305.057,302.057,0.0185404,0.00652877,25,670,3
324.691,0.0970428,0.654093,0.0535293,-0.0198748,327.583,327.724,324.55,0.0534256,0.00652877,25,671,3
-239.832,1.48478,-1.24598,-1.65033,-0.373159,-244.49,-1.63431,-239.535,-244.803,0.151961,25,672,3
-65.1866,3.19409,-0.344558,-1.09101,-0.801306,-66.4763,0.536719,-65.1841,-68.1066,0.151961,25,673,3
-229.07,1.94815,-2.45972,-1.83141,-0.493807,-238.261,-1.8016,-228.482,-238.879,0.215295,25,674,3
-62.1285,4.64764,-0.697573,-1.15179,-1.16984,-64.7381,1.01366,-62.1477,-66.8844,0.215295,25,675,3
-239.755,1.4967,-1.08927,-1.65033,-0.322025,-244.568,-1.63431,-239.535,-244.803,0.151961,25,676,3
-65.1656,3.2191,-0.301832,-1.09101,-0.69404,-66.4974,0.536719,-65.1841,-68.1066,0.151961,25,677,3
-228.916,1.96565,-2.14839,-1.83141,-0.418762,-238.414,-1.8016,-228.482,-238.879,0.215295,25,678,3
-62.0856,4.68575,-0.610515,-1.15179,-1.0064,-64.7811,1.01366,-62.1477,-66.8844,0.215295,25,679,3
65.5625,3.24823,0.343665,-0.621816,-0.814919,66.8483,66.9347,65.6886,-0.834277,0.0759804,25,680,3
152.785,2.65015,0.799964,-0.328569,-0.664983,155.778,155.978,152.638,-0.382616,0.0759804,25,681,3
62.5168,4.75021,0.694195,-0.554138,-1.19552,65.1131,65.2875,62.8189,-1.03072,0.107648,25,682,3
145.731,3.77586,1.60886,-0.179819,-0.951447,151.748,152.151,145.443,-0.295239,0.107648,25,683,3
65.5414,3.27367,0.300864,-0.621816,-0.705775,66.8694,66.9347,65.6886,-0.834277,0.0759804,25,684,3
152.736,2.67096,0.700165,-0.328569,-0.575725,155.827,155.978,152.638,-0.382616,0.0759804,25,685,3
62.474,4.7891,0.607268,-0.554138,-1.02874,65.1559,65.2875,62.8189,-1.03072,0.107648,25,686,3
145.632,3.80728,1.40703,-0.179819,-0.816694,151.847,152.151,145.443,-0.295239,0.107648,25,687,3
218.271,1.89389,1.14107,-0.140678,-0.475438,222.539,222.825,218.003,-0.159462,0.0379902,25,688,3
262.008,1.21421,1.36403,-0.0259876,-0.305176,267.108,267.45,261.672,-0.0326347,0.0379902,25,689,3
208.325,2.56576,2.27402,0.0611439,-0.648352,216.826,217.397,207.79,0.0256068,0.0538238,25,690,3
250.253,1.51645,2.69142,0.19515,-0.385596,260.31,260.986,249.587,0.184598,0.0538238,25,691,3
218.2,1.90886,0.998377,-0.140678,-0.411238,222.609,222.825,218.003,-0.159462,0.0379902,25,692,3
261.923,1.22396,1.19274,-0.0259876,-0.263325,267.193,267.45,261.672,-0.0326347,0.0379902,25,693,3
208.184,2.58792,1.98777,0.0611439,-0.553316,216.967,217.397,207.79,0.0256068,0.0538238,25,694,3
250.085,1.53061,2.35102,0.19515,-0.324878,260.478,260.986,249.587,0.184598,0.0538238,25,695,3
294.869,0.614959,1.52676,0.0572082,-0.155121,300.575,300.959,294.487,0.0557108,0.0189951,25,696,3
316.83,0.162766,1.62979,0.1189,-0.0419173,322.919,323.328,316.421,0.118675,0.0189951,25,697,3
281.812,0.627908,2.9895,0.280866,-0.163131,292.979,293.73,281.063,0.278459,0.0269119,25,698,3
302.943,-0.0105987,3.17513,0.332781,-0.00325456,314.799,315.597,302.148,0.330161,0.0269119,25,699,3
294.774,0.620148,1.33414,0.0572082,-0.132866,300.67,300.959,294.487,0.0557108,0.0189951,25,700,3
316.728,0.16452,1.42313,0.1189,-0.0343949,323.021,323.328,316.421,0.118675,0.0189951,25,701,3
281.625,0.635305,2.60971,0.280866,-0.131409,293.166,293.73,281.063,0.278459,0.0269119,25,702,3
302.743,-0.00806623,2.77013,0.332781,0.00760662,314.999,315.597,302.148,0.330161,0.0269119,25,703,3
-204.335,3.05841,-5.16142,-1.84793,-0.766174,-223.631,-1.7565,-203.13,-224.927,0.620593,25,704,3
-55.4705,6.49249,-1.42051,-1.14883,-1.6266,-60.7831,1.85108,-55.603,-63.6504,0.620593,25,705,3
-160.295,4.38132,-10.0505,-1.57028,-1.09232,-197.903,-1.32493,-158.019,-200.425,0.873929,25,706,3
-43.562,8.9619,-2.73879,-1.09957,-2.23991,-53.8104,3.31703,-44.0323,-57.7567,0.873929,25,707,3
-204.015,3.08188,-4.51216,-1.84793,-0.66554,-223.951,-1.7565,-203.13,-224.927,0.620593,25,708,3
-55.3827,6.54237,-1.24263,-1.14883,-1.41271,-60.8708,1.85108,-55.603,-63.6504,0.620593,25,709,3
-159.678,4.4126,-8.80002,-1.57028,-0.958138,-198.52,-1.32493,-158.019,-200.425,0.873929,25,710,3
-43.394,9.02837,-2.39801,-1.09957,-1.95483,-53.9784,3.31703,-44.0323,-57.7567,0.873929,25,711,3
55.8117,6.61127,1.4231,-0.561027,-1.65632,61.1336,61.5015,56.577,-1.69426,0.310296,25,712,3
130.084,5.38476,3.31099,-0.190504,-1.34907,142.465,143.296,129.557,-0.495453,0.310296,25,713,3
43.8408,9.12049,2.74891,-0.617072,-2.27964,54.1269,54.8893,45.5802,-3.11891,0.436965,25,714,3
102.147,7.48319,6.40675,-0.329553,-1.86947,126.121,127.728,101.286,-1.07573,0.436965,25,715,3
55.7237,6.66204,1.24474,-0.561027,-1.43858,61.2215,61.5015,56.577,-1.69426,0.310296,25,716,3
129.879,5.42613,2.89569,-0.190504,-1.17167,142.67,143.296,129.557,-0.495453,0.310296,25,717,3
43.6721,9.18818,2.40685,-0.617072,-1.98934,54.2956,54.8893,45.5802,-3.11891,0.436965,25,718,3
101.754,7.53832,5.60958,-0.329553,-1.63306,126.514,127.728,101.286,-1.07573,0.436965,25,719,3
185.914,3.84947,4.71514,0.0540188,-0.964442,203.544,204.727,184.838,-0.054076,0.155148,25,720,3
223.257,2.49328,5.63814,0.199484,-0.624639,244.335,245.751,221.881,0.159832,0.155148,25,721,3
145.93,5.43483,9.14981,-0.167575,-1.35629,180.168,182.463,143.916,-0.448808,0.218482,25,722,3
175.17,3.62679,10.9765,-0.100228,-0.903324,216.243,218.997,172.53,-0.214318,0.218482,25,723,3
185.622,3.87905,4.12297,0.0540188,-0.837596,203.836,204.727,184.838,-0.054076,0.155148,25,724,3
222.907,2.51242,4.929,0.199484,-0.542527,244.685,245.751,221.881,0.159832,0.155148,25,725,3
145.369,5.47423,8.01142,-0.167575,-1.18734,180.729,182.463,143.916,-0.448808,0.218482,25,726,3
174.496,3.6523,9.61089,-0.100228,-0.79392,216.917,218.997,172.53,-0.214318,0.218482,25,727,3
251.332,1.31567,6.32354,0.298733,-0.329565,274.97,276.558,249.754,0.288463,0.0775741,25,728,3
270.099,0.442047,6.77476,0.363304,-0.110665,295.422,297.123,268.4,0.361281,0.0775741,25,729,3
197.135,2.05729,12.3445,-0.0712697,-0.510189,243.328,246.424,194.075,-0.107996,0.109241,25,730,3
211.809,0.892981,13.2538,-0.0626074,-0.218647,261.404,264.729,208.494,-0.0720732,0.109241,25,731,3
250.939,1.32575,5.52715,0.298733,-0.286326,275.362,276.558,249.754,0.288463,0.0775741,25,732,3
269.678,0.445406,5.92064,0.363304,-0.0962604,295.843,297.123,268.4,0.361281,0.0775741,25,733,3
196.378,2.07078,10.8086,-0.0712697,-0.452342,244.085,246.424,194.075,-0.107996,0.109241,25,734,3
210.996,0.897596,11.6048,-0.0626074,-0.198857,262.217,264.729,208.494,-0.0720732,0.109241,25,735,3
-119.008,5.03603,-14.7103,-1.41578,-1.2664,-174.062,-1.02598,-115.708,-177.751,0.531966,25,736,3
-32.4195,11.1419,-3.98798,-1.05601,-2.79544,-47.3432,4.93065,-33.4871,-52.2624,0.531966,25,737,3
-85.8936,5.80255,-18.4249,-1.57626,-1.45236,-154.836,-0.853127,-81.9947,-159.458,0.5953,25,738,3
-23.3374,12.2807,-5.01331,-1.1217,-3.07477,-42.0951,6.4507,-25.3872,-47.6177,0.5953,25,739,3
-118.107,5.07679,-12.8835,-1.41578,-1.09158,-174.963,-1.02598,-115.708,-177.751,0.531966,25,740,3
-32.175,11.2292,-3.49215,-1.05601,-2.42076,-47.5877,4.93065,-33.4871,-52.2624,0.531966,25,741,3
-84.7626,5.84651,-16.1313,-1.57626,-1.26382,-155.967,-0.853127,-81.9947,-159.458,0.5953,25,742,3
-23.0295,12.3741,-4.38883,-1.1217,-2.67392,-42.4031,6.4507,-25.3872,-47.6177,0.5953,25,743,3
32.6397,11.368,4.00566,-0.667099,-2.8521,47.6298,48.6346,35.8873,-4.91951,0.265983,25,744,3
75.9972,9.16452,9.34456,-0.440408,-2.30023,110.967,113.311,74.9484,-1.73549,0.265983,25,745,3
23.5345,12.5087,5.03283,-0.600064,-3.13192,42.3656,43.6282,28.485,-6.81318,0.29765,25,746,3
54.8022,10.1942,11.7326,-0.295367,-2.55215,98.7016,101.645,54.0819,-2.51844,0.29765,25,747,3
32.3941,11.4571,3.50774,-0.667099,-2.46998,47.8754,48.6346,35.8873,-4.91951,0.265983,25,748,3
75.4245,9.23677,8.1832,-0.440408,-1.99035,111.54,113.311,74.9484,-1.73549,0.265983,25,749,3
23.2254,12.604,4.40603,-0.600064,-2.72354,42.6747,43.6282,28.485,-6.81318,0.29765,25,750,3
54.0817,10.2717,10.2715,-0.295367,-2.21984,99.4221,101.645,54.0819,-2.51844,0.29765,25,751,3
108.483,6.42688,13.3654,-0.31911,-1.61464,158.502,161.854,105.572,-0.761153,0.132991,25,752,3
130.094,4.04391,16.0628,-0.275319,-1.01796,190.209,194.238,126.218,-0.428484,0.132991,25,753,3
78.2864,7.30032,16.7603,-0.13243,-1.8273,140.999,145.203,74.8942,-0.944825,0.148825,25,754,3
93.9522,4.74996,20.1167,-0.0854123,-1.18864,169.224,174.271,89.2078,-0.387566,0.148825,25,755,3
107.664,6.47823,11.705,-0.31911,-1.39441,159.32,161.854,105.572,-0.761153,0.132991,25,756,3
129.11,4.0771,14.068,-0.275319,-0.875598,191.193,194.238,126.218,-0.428484,0.132991,25,757,3
77.2573,7.35565,14.6735,-0.13243,-1.59,142.028,145.203,74.8942,-0.944825,0.148825,25,758,3
92.7173,4.78583,17.6125,-0.0854123,-1.03479,170.459,174.271,89.2078,-0.387566,0.148825,25,759,3
146.29,2.01171,18.093,-0.262915,-0.509216,214.005,218.543,141.787,-0.298264,0.0664957,25,760,3
157.081,0.536045,19.4505,-0.266031,-0.139903,229.878,234.756,152.209,-0.272065,0.0664957,25,761,3
105.706,2.54116,22.6368,-0.0867472,-0.635672,190.409,196.088,100.107,-0.166436,0.0744125,25,762,3
113.54,0.905159,24.3191,-0.112946,-0.226274,204.54,210.64,107.453,-0.12588,0.0744125,25,763,3
145.182,2.02947,15.8468,-0.262915,-0.433055,215.113,218.543,141.787,-0.298264,0.0664957,25,764,3
155.89,0.542642,17.0362,-0.266031,-0.111611,231.069,234.756,152.209,-0.272065,0.0664957,25,765,3
104.316,2.56025,19.8195,-0.0867472,-0.55381,191.799,196.088,100.107,-0.166436,0.0744125,25,766,3
112.048,0.911891,21.2929,-0.112946,-0.197403,206.032,210.64,107.453,-0.12588,0.0744125,25,767,3
-58.9616,6.17776,-21.4394,-1.54698,-1.5508,-139.184,-0.359558,-54.7708,-144.562,0.3214,25,768,3
-16.0262,13.3542,-5.82803,-1.0902,-3.34815,-37.8325,8.43275,-19.497,-43.8846,0.3214,25,769,3
-39.4991,6.64197,-23.626,-1.57184,-1.66358,-127.899,0.482249,-35.6261,-133.826,0.337234,25,770,3
-10.8301,14.0073,-6.39703,-0.96696,-3.50827,-34.7654,10.3562,-15.778,-41.1406,0.337234,25,771,3
-57.6457,6.22656,-18.7709,-1.54698,-1.34148,-140.5,-0.359558,-54.7708,-144.562,0.3214,25,772,3
-15.6683,13.4579,-5.10214,-1.0902,-2.90354,-38.1904,8.43275,-19.497,-43.8846,0.3214,25,773,3
-38.0482,6.69279,-20.6837,-1.57184,-1.44565,-129.35,0.482249,-35.6261,-133.826,0.337234,25,774,3
-10.4372,14.1144,-5.60029,-0.96696,-3.04879,-35.1583,10.3562,-15.778,-41.1406,0.337234,25,775,3
16.1965,13.5936,5.85256,-0.602168,-3.40816,38.0948,39.5631,23.2742,-9.14808,0.1607,25,776,3
37.6942,11.0334,13.6426,-0.324174,-2.76674,88.7406,92.1631,37.8487,-3.9012,0.1607,25,777,3
10.7231,14.126,6.48759,-0.440971,-3.53809,34.9971,36.6307,19.778,-11.1295,0.168617,25,778,3
25.2453,11.4134,15.0524,-0.184687,-2.85853,81.5661,85.3423,26.8294,-5.54508,0.168617,25,779,3
15.8371,13.6991,5.12375,-0.602168,-2.95561,38.4542,39.5631,23.2742,-9.14808,0.1607,25,780,3
36.8564,11.1193,11.9438,-0.324174,-2.39855,89.5784,92.1631,37.8487,-3.9012,0.1607,25,781,3
10.3246,14.2341,5.67954,-0.440971,-3.07456,35.3956,36.6307,19.778,-11.1295,0.168617,25,782,3
24.3208,11.5006,13.1778,-0.184687,-2.48427,82.4906,85.3423,26.8294,-5.54508,0.168617,25,783,3
53.8359,7.82868,19.4914,-0.177743,-1.96398,126.767,131.657,50.2832,-1.51472,0.0803501,25,784,3
64.5626,5.00234,23.4044,-0.12683,-1.25625,152.137,158.009,59.1712,-0.606675,0.0803501,25,785,3
36.2287,8.11152,21.4685,-0.0594784,-2.03148,116.556,121.942,33.0485,-2.26519,0.0843085,25,786,3
43.5857,5.24372,25.747,-0.0218075,-1.31327,139.922,146.381,37.9567,-0.852026,0.0843085,25,787,3
52.6391,7.88997,17.0646,-0.177743,-1.70109,127.964,131.657,50.2832,-1.51472,0.0803501,25,788,3
63.126,5.04209,20.4912,-0.12683,-1.08579,153.574,158.009,59.1712,-0.606675,0.0803501,25,789,3
34.9102,8.1735,18.7948,-0.0594784,-1.76566,117.875,121.942,33.0485,-2.26519,0.0843085,25,790,3
42.0044,5.2838,22.5405,-0.0218075,-1.1414,141.503,146.381,37.9567,-0.852026,0.0843085,25,791,3
72.572,2.56805,26.35,-0.114366,-0.64693,171.171,177.781,66.0765,-0.22894,0.040175,25,792,3
77.8672,0.79279,28.3243,-0.123901,-0.202647,183.857,190.962,70.7779,-0.139739,0.040175,25,793,3
49.1016,2.77643,28.9605,-0.0182073,-0.695418,157.462,164.727,42.0476,-0.229328,0.0421542,25,794,3
52.7545,0.958524,31.1091,-0.0443346,-0.240615,169.155,176.959,44.9811,-0.075129,0.0421542,25,795,3
70.955,2.58935,23.0711,-0.114366,-0.555607,172.788,177.781,66.0765,-0.22894,0.040175,25,796,3
76.1296,0.80066,24.8008,-0.123901,-0.168894,185.594,190.962,70.7779,-0.139739,0.040175,25,797,3
47.3231,2.79768,25.354,-0.0182073,-0.604283,159.241,164.727,42.0476,-0.229328,0.0421542,25,798,3
50.8442,0.966095,27.2353,-0.0443346,-0.208144,171.065,176.959,44.9811,-0.075129,0.0421542,25,799,3
-24.114,7.00317,-25.3717,-1.59538,-1.75511,-119.047,1.87701,-21.2214,-125.412,0.174555,25,800,3
-7.08933,14.6454,-6.80138,-1.12098,-3.66916,-32.5375,12.1169,-13.63,-39.2347,0.174555,25,801,3
-13.6545,6.76214,-26.5673,-1.96392,-1.69435,-113.06,3.33661,-12.29,-119.725,0.178513,25,802,3
-4.25073,14.544,-7.22672,-2.8317,-3.64348,-31.2912,12.4143,-12.4406,-38.3473,0.178513,25,803,3
-22.5559,7.05722,-22.2123,-1.59538,-1.52331,-120.605,1.87701,-21.2214,-125.412,0.174555,25,804,3
-6.67159,14.7579,-5.95428,-1.12098,-3.18674,-32.9552,12.1169,-13.63,-39.2347,0.174555,25,805,3
-12.0229,6.81417,-23.2587,-1.96392,-1.4712,-114.692,3.33661,-12.29,-119.725,0.178513,25,806,3
-3.80702,14.6556,-6.32695,-2.8317,-3.16492,-31.7349,12.4143,-12.4406,-38.3473,0.178513,25,807,3
6.10358,14.6192,7.03218,-0.542244,-3.66286,32.4148,34.1849,17.1995,-13.4082,0.0872773,25,808,3
15.391,11.6334,16.1739,-0.178736,-2.91486,75.9067,79.9641,18.9896,-7.83476,0.0872773,25,809,3
3.14241,15.4155,7.22939,-2.82494,-3.86295,30.1881,32.0154,15.2756,-16.7854,0.0892564,25,810,3
8.1145,12.7698,16.9335,-1.82403,-3.20111,71.4651,75.7153,14.5171,-12.4769,0.0892564,25,811,3
5.67157,14.7316,6.15614,-0.542244,-3.18081,32.8468,34.1849,17.1995,-13.4082,0.0872773,25,812,3
14.3974,11.7229,14.1591,-0.178736,-2.53105,76.9003,79.9641,18.9896,-7.83476,0.0872773,25,813,3
2.6976,15.5343,6.32741,-2.82494,-3.35354,30.6329,32.0154,15.2756,-16.7854,0.0892564,25,814,3
7.07281,12.8687,14.8212,-1.82403,-2.77694,72.5068,75.7153,14.5171,-12.4769,0.0892564,25,815,3
22.6994,8.10859,22.9738,-0.0263066,-2.03172,108.658,114.421,20.4409,-3.531,0.0436386,25,816,3
27.7054,5.14355,27.4875,-0.00575912,-1.28922,130.553,137.45,22.1539,-1.35048,0.0436386,25,817,3
12.5531,8.86945,24.1176,-0.751755,-2.22403,102.781,108.833,12.8367,-7.08792,0.0446282,25,818,3
16.431,5.40707,28.7384,-0.216219,-1.35559,123.951,131.16,12.0327,-3.02718,0.0446282,25,819,3
21.2881,8.17098,20.1121,-0.0263066,-1.76414,110.069,114.421,20.4409,-3.531,0.0436386,25,820,3
26.0171,5.18332,24.0641,-0.00575912,-1.11866,132.242,137.45,22.1539,-1.35048,0.0436386,25,821,3
11.0695,8.93844,21.1093,-0.751755,-1.92819,104.264,108.833,12.8367,-7.08792,0.0446282,25,822,3
14.6643,5.44901,25.1558,-0.216219,-1.1757,125.718,131.16,12.0327,-3.02718,0.0446282,25,823,3
31.4783,2.65273,30.8742,-0.00604522,-0.666218,146.999,154.746,24.0637,-0.338228,0.0218193,25,824,3
33.9186,0.885734,33.1465,-0.0522838,-0.223181,157.944,166.259,25.6558,-0.105037,0.0218193,25,825,3
19.8802,2.61173,32.1,0.032471,-0.654197,139.987,148.037,12.4942,-0.631831,0.0223141,25,826,3
22.2646,0.881103,34.3059,-0.138171,-0.223352,150.632,159.24,13.8722,-0.353987,0.0223141,25,827,3
29.5822,2.67382,27.0292,-0.00604522,-0.575758,148.895,154.746,24.0637,-0.338228,0.0218193,25,828,3
31.8834,0.893101,29.0195,-0.0522838,-0.191585,159.979,166.259,25.6558,-0.105037,0.0218193,25,829,3
17.9088,2.63174,28.1022,0.032471,-0.568408,141.958,148.037,12.4942,-0.631831,0.0223141,25,830,3
20.159,0.889023,30.0362,-0.138171,-0.189384,152.738,159.24,13.8722,-0.353987,0.0223141,25,831,3
-6.55741,5.712,-27.318,-2.4416,-1.4306,-108.806,5.09622,-7.24401,-115.657,0.0922591,25,832,3
-1.44451,12.7734,-7.76614,-5.81057,-3.1998,-30.5113,10.9194,-11.0503,-37.6354,0.0922591,25,833,3
-2.96238,4.43656,-27.5828,-2.38451,-1.11089,-106.203,6.59699,-5.02629,-113.121,0.0932817,25,834,3
0.333382,9.58042,-8.0869,-7.54231,-2.39846,-29.9343,8.50696,-9.22007,-36.4301,0.0932817,25,835,3
-4.88645,5.75568,-23.9296,-2.4416,-1.24329,-110.477,5.09622,-7.24401,-115.657,0.0922591,25,836,3
-0.969237,12.8713,-6.80239,-5.81057,-2.77972,-30.9866,10.9194,-11.0503,-37.6354,0.0922591,25,837,3
-1.27538,4.47036,-24.1619,-2.38451,-0.965913,-107.89,6.59699,-5.02629,-113.121,0.0932817,25,838,3
0.828204,9.65323,-7.0835,-7.54231,-2.0862,-30.4291,8.50696,-9.22007,-36.4301,0.0932817,25,839,3
2.8082,15.3054,6.76414,-8.80299,-3.83481,28.1312,29.8303,12.7352,-20.429,0.0461296,25,840,3
3.89187,15.4255,16.9026,-8.82122,-3.86751,67.1668,71.4186,11.9179,-21.0991,0.0461296,25,841,3
4.42967,11.355,6.01129,-14.6672,-2.84007,26.9338,28.4479,8.89482,-20.6464,0.0466408,25,842,3
5.85077,13.2194,15.5037,-21.789,-3.29604,63.9013,67.8596,8.50862,-28.405,0.0466408,25,843,3
2.39551,15.4231,5.9273,-8.80299,-3.33007,28.5439,29.8303,12.7352,-20.429,0.0461296,25,844,3
2.85994,15.5452,14.81,-8.82122,-3.35385,68.1987,71.4186,11.9179,-21.0991,0.0461296,25,845,3
4.06283,11.4401,5.26741,-14.6672,-2.475,27.3006,28.4479,8.89482,-20.6464,0.0466408,25,846,3
4.90669,13.3139,13.5893,-21.789,-2.89066,64.8454,67.8596,8.50862,-28.405,0.0466408,25,847,3
3.67535,13.2167,24.8822,-6.07199,-3.31896,96.8182,103.091,9.46139,-18.1307,0.0230648,25,848,3
4.68072,8.72585,30.1095,-2.59873,-2.19923,117.384,124.984,6.58933,-12.1073,0.0230648,25,849,3
3.85552,16.5295,23.1551,-27.7074,-4.10576,90.5729,96.6849,7.30294,-37.2668,0.0233204,25,850,3
-1.35263,20.367,29.1189,-29.4679,-5.03559,107.699,116.044,5.96275,-45.1288,0.0233204,25,851,3
2.15549,13.3216,21.8003,-6.07199,-2.8689,98.3381,103.091,9.46139,-18.1307,0.0230648,25,852,3
2.8401,8.79868,26.3771,-2.59873,-1.88692,119.224,124.984,6.58933,-12.1073,0.0230648,25,853,3
2.44895,16.6408,20.3028,-27.7074,-3.62845,91.9795,96.6849,7.30294,-37.2668,0.0233204,25,854,3
-3.12169,20.4938,25.5316,-29.4679,-4.49183,109.468,116.044,5.96275,-45.1288,0.0233204,25,855,3
8.79792,3.8097,33.3859,-0.676695,-0.9719,133.743,142.169,5.59575,-5.90138,0.0115324,25,856,3
11.9203,2.00188,35.3727,-1.61754,-0.514122,144.312,153.284,8.77274,-7.44193,0.0115324,25,857,3
-10.1941,22.2376,34.7881,-26.5077,-5.46639,120.066,131.149,6.07437,-53.8596,0.0116602,25,858,3
-18.6004,16.9438,39.3576,-20.0946,-4.10099,128.659,142.955,6.59839,-59.5896,0.0116602,25,859,3
6.75271,3.84667,29.2386,-0.676695,-0.813316,135.788,142.169,5.59575,-5.90138,0.0115324,25,860,3
9.75575,2.02282,30.9834,-1.61754,-0.424306,146.477,153.284,8.77274,-7.44193,0.0115324,25,861,3
-12.312,22.362,30.4934,-26.5077,-4.93279,122.184,131.149,6.07437,-53.8596,0.0116602,25,862,3
-21.0182,17.0103,34.4548,-20.0946,-3.81598,131.076,142.955,6.59839,-59.5896,0.0116602,25,863,3
-250.911,0.135742,-0.00757222,-1.6153,-0.0247607,-250.951,-1.61518,-250.909,-250.952,0.00167713,25,864,3
-68.2442,0.289287,-0.0020686,-1.10911,-0.0527004,-68.2552,-0.183942,-68.2445,-69.1802,0.00167713,25,865,3
-250.782,0.212209,-0.0182047,-1.61512,-0.038653,-250.878,-1.61482,-250.779,-250.882,0.00266631,25,866,3
-68.2089,0.451947,-0.00498421,-1.10918,-0.0822876,-68.2354,-0.170956,-68.2096,-69.173,0.00266631,25,867,3
-250.91,0.13649,-0.00624284,-1.6153,-0.0202152,-250.951,-1.61517,-250.909,-250.952,0.00167713,25,868,3
-68.2441,0.290867,-0.00170589,-1.10911,-0.043115,-68.2553,-0.183943,-68.2445,-69.1802,0.00167713,25,869,3
-250.781,0.213375,-0.0150124,-1.61512,-0.0316157,-250.88,-1.61482,-250.779,-250.882,0.00266631,25,870,3
-68.2086,0.454416,-0.00411145,-1.10918,-0.0673575,-68.2357,-0.170956,-68.2096,-69.173,0.00266631,25,871,3
68.618,0.294695,0.00207451,-0.607236,-0.0536847,68.629,68.6294,68.6192,-0.608878,0.000838566,25,872,3
159.896,0.239715,0.00483999,-0.305328,-0.0436805,159.922,159.923,159.896,-0.305738,0.000838566,25,873,3
68.5826,0.460684,0.00499602,-0.60706,-0.083871,68.6092,68.6101,68.5856,-0.611001,0.00133315,25,874,3
159.814,0.374566,0.0116319,-0.305221,-0.068203,159.876,159.878,159.813,-0.306201,0.00133315,25,875,3
68.6178,0.296304,0.00171061,-0.607235,-0.0439179,68.6291,68.6294,68.6192,-0.608877,0.000838566,25,876,3
159.896,0.241026,0.00399103,-0.305329,-0.0357213,159.922,159.923,159.896,-0.305739,0.000838566,25,877,3
68.5823,0.463199,0.00412104,-0.60706,-0.0686676,68.6095,68.6101,68.5856,-0.611001,0.00133315,25,878,3
159.813,0.376614,0.00959417,-0.30522,-0.0558214,159.876,159.878,159.813,-0.306201,0.00133315,25,879,3
228.411,0.171028,0.00691591,-0.128623,-0.0311815,228.448,228.449,228.41,-0.128763,0.000419283,25,880,3
274.131,0.110614,0.00828094,-0.0495691,-0.0201878,274.175,274.177,274.13,-0.0496204,0.000419283,25,881,3
228.294,0.267179,0.016581,-0.128872,-0.0486594,228.382,228.385,228.291,-0.129207,0.000666576,25,882,3
273.99,0.172959,0.019871,-0.0502438,-0.0315101,274.096,274.1,273.987,-0.0503645,0.000666576,25,883,3
228.411,0.171966,0.00570203,-0.128623,-0.025477,228.448,228.449,228.41,-0.128764,0.000419283,25,884,3
274.131,0.111225,0.0068273,-0.049571,-0.0164686,274.176,274.177,274.13,-0.0496223,0.000419283,25,885,3
228.293,0.268644,0.0136762,-0.128872,-0.0398099,228.383,228.385,228.291,-0.129207,0.000666576,25,886,3
273.989,0.173912,0.0163875,-0.0502437,-0.0257625,274.097,274.1,273.987,-0.0503645,0.000666576,25,887,3
308.447,0.0585624,0.00927555,-0.0128831,-0.010712,308.496,308.498,308.445,-0.0128969,0.000209641,25,888,3
331.339,0.0202171,0.00993308,-0.00186489,-0.00373752,331.392,331.394,331.338,-0.00186798,0.000209641,25,889,3
308.288,0.0917934,0.0223835,-0.013774,-0.0167342,308.407,308.411,308.284,-0.0138049,0.000333288,25,890,3
331.169,0.0314323,0.0239875,-0.00213332,-0.00574593,331.297,331.301,331.165,-0.00213864,0.000333288,25,891,3
308.446,0.0588944,0.00764514,-0.0128778,-0.00871009,308.497,308.498,308.445,-0.0128915,0.000209641,25,892,3
331.339,0.0203441,0.00818781,-0.00186569,-0.00299707,331.393,331.394,331.338,-0.00186879,0.000209641,25,893,3
308.287,0.0923036,0.0184596,-0.0137744,-0.013666,308.408,308.411,308.284,-0.0138053,0.000333288,25,894,3
331.168,0.0316112,0.0197665,-0.00213514,-0.00466656,331.298,331.301,331.165,-0.00214046,0.000333288,25,895,3
-250.456,0.332181,-0.0451482,-1.61581,-0.0604785,-250.696,-1.61507,-250.448,-250.704,0.00830233,25,896,3
-68.1197,0.709481,-0.0123639,-1.10928,-0.129134,-68.1854,-0.140948,-68.121,-69.1523,0.00830233,25,897,3
-249.844,0.485966,-0.0955205,-1.61445,-0.0886142,-250.352,-1.61289,-249.828,-250.369,0.0122607,25,898,3
-67.953,1.03655,-0.0260238,-1.10793,-0.188846,-68.0914,-0.0848245,-67.9562,-69.1113,0.0122607,25,899,3
-250.453,0.333992,-0.0371935,-1.6158,-0.0495075,-250.698,-1.61507,-250.448,-250.704,0.00830233,25,900,3
-68.1189,0.713337,-0.010195,-1.10928,-0.105774,-68.1861,-0.140948,-68.121,-69.1523,0.00830233,25,901,3
-249.839,0.48866,-0.0787056,-1.61445,-0.0722973,-250.358,-1.61289,-249.828,-250.369,0.0122607,25,902,3
-67.9515,1.04224,-0.0214613,-1.10793,-0.154363,-68.0929,-0.0848245,-67.9562,-69.1113,0.0122607,25,903,3
68.4928,0.722424,0.0124304,-0.60705,-0.131499,68.5588,68.5611,68.5003,-0.616817,0.00415116,25,904,3
159.605,0.58725,0.0288738,-0.304829,-0.106895,159.759,159.764,159.603,-0.30726,0.00415116,25,905,3
68.3259,1.05564,0.0260855,-0.608432,-0.192315,68.4646,68.4693,68.3418,-0.629114,0.00613036,25,906,3
159.216,0.859332,0.060884,-0.306771,-0.15658,159.539,159.55,159.21,-0.311931,0.00613036,25,907,3
68.492,0.726354,0.0102476,-0.60705,-0.107695,68.5596,68.5611,68.5003,-0.616817,0.00415116,25,908,3
159.604,0.590445,0.0237938,-0.304829,-0.0875437,159.761,159.764,159.603,-0.30726,0.00415116,25,909,3
68.3244,1.06144,0.0215062,-0.608432,-0.157216,68.4661,68.4693,68.3418,-0.629114,0.00613036,25,910,3
159.212,0.864058,0.0501882,-0.306771,-0.127953,159.543,159.55,159.21,-0.311931,0.00613036,25,911,3
227.997,0.418553,0.0411424,-0.128335,-0.0761933,228.215,228.223,227.99,-0.129164,0.00207558,25,912,3
273.634,0.270906,0.0492737,-0.0499424,-0.049314,273.896,273.905,273.626,-0.0502405,0.00207558,25,913,3
227.438,0.613711,0.0870868,-0.13139,-0.111856,227.901,227.917,227.424,-0.133158,0.00306518,25,914,3
272.964,0.397568,0.104587,-0.052608,-0.0724945,273.519,273.539,272.945,-0.053245,0.00306518,25,915,3
227.994,0.420831,0.0339013,-0.128335,-0.06239,228.218,228.223,227.99,-0.129164,0.00207558,25,916,3
273.631,0.27238,0.0406008,-0.0499424,-0.0403835,273.899,273.905,273.626,-0.0502405,0.00207558,25,917,3
227.433,0.617097,0.0717919,-0.13139,-0.0913508,227.906,227.917,227.424,-0.133158,0.00306518,25,918,3
272.957,0.399772,0.086209,-0.052608,-0.0591469,273.526,273.539,272.945,-0.053245,0.00306518,25,919,3
307.888,0.143858,0.0554126,-0.0136446,-0.0261827,308.182,308.192,307.878,-0.0137203,0.00103779,25,920,3
330.74,0.0492131,0.0593776,-0.000887275,-0.00895916,331.056,331.067,330.729,-0.000899239,0.00103779,25,921,3
307.136,0.208813,0.11755,-0.0138718,-0.0381243,307.76,307.782,307.114,-0.0140302,0.00153259,25,922,3
329.942,0.0671169,0.125112,0.00251103,-0.012351,330.607,330.63,329.92,0.00248759,0.00153259,25,923,3
307.884,0.14464,0.0456571,-0.0136445,-0.0214487,308.185,308.192,307.878,-0.0137202,0.00103779,25,924,3
330.737,0.0494812,0.0488789,-0.000887173,-0.00733596,331.059,331.067,330.729,-0.000899137,0.00103779,25,925,3
307.129,0.209986,0.096854,-0.0138718,-0.0310199,307.767,307.782,307.114,-0.0140302,0.00153259,25,926,3
329.935,0.0675252,0.102934,0.00251104,-0.00987847,330.614,330.63,329.92,0.00248759,0.00153259,25,927,3
-248.399,0.726566,-0.214793,-1.61811,-0.132444,-249.539,-1.61457,-248.363,-249.579,0.0363966,25,928,3
-67.5559,1.54904,-0.0589125,-1.10822,-0.282137,-67.869,0.0252236,-67.5627,-68.9956,0.0363966,25,929,3
-245.767,1.01631,-0.432399,-1.63049,-0.186103,-248.063,-1.62348,-245.695,-248.142,0.0522301,25,930,3
-66.8184,2.22497,-0.11994,-1.10017,-0.406125,-67.4562,0.21191,-66.8331,-68.7536,0.0522301,25,931,3
-248.386,0.73058,-0.17683,-1.61811,-0.108132,-249.552,-1.61457,-248.363,-249.579,0.0363966,25,932,3
-67.5524,1.55753,-0.0485828,-1.10822,-0.23076,-67.8725,0.0252236,-67.5627,-68.9956,0.0363966,25,933,3
-245.741,1.02219,-0.355785,-1.63049,-0.150455,-248.089,-1.62348,-245.695,-248.142,0.0522301,25,934,3
-66.8113,2.23744,-0.0989752,-1.10017,-0.330622,-67.4633,0.21191,-66.8331,-68.7536,0.0522301,25,935,3
67.928,1.57576,0.0590388,-0.60839,-0.28704,68.2417,68.2525,67.9639,-0.655077,0.0181983,25,936,3
158.293,1.28326,0.136995,-0.306996,-0.233754,159.021,159.046,158.28,-0.318676,0.0181983,25,937,3
67.1942,2.25986,0.119703,-0.612844,-0.412515,67.8304,67.8523,67.2683,-0.708879,0.0261151,25,938,3
156.585,1.83978,0.278371,-0.314018,-0.335957,158.065,158.115,156.559,-0.338091,0.0261151,25,939,3
67.9245,1.5844,0.0486591,-0.60839,-0.234706,68.2453,68.2525,67.9639,-0.655077,0.0181983,25,940,3
158.285,1.29029,0.112855,-0.306996,-0.191141,159.029,159.046,158.28,-0.318676,0.0181983,25,941,3
67.1871,2.27252,0.0986814,-0.612844,-0.335785,67.8375,67.8523,67.2683,-0.708879,0.0261151,25,942,3
156.569,1.85013,0.22942,-0.314018,-0.27325,158.081,158.115,156.559,-0.338091,0.0261151,25,943,3
226.12,0.918693,0.195675,-0.133784,-0.167352,227.16,227.196,226.089,-0.13781,0.00909915,25,944,3
271.381,0.597121,0.235033,-0.0542558,-0.108787,272.63,272.673,271.34,-0.0557191,0.00909915,25,945,3
223.687,1.30728,0.397755,-0.132028,-0.238937,225.8,225.873,223.622,-0.140226,0.0130575,25,946,3
268.492,0.827583,0.474714,-0.0379223,-0.151591,271.013,271.1,268.408,-0.0407428,0.0130575,25,947,3
226.109,0.923731,0.161206,-0.133784,-0.136834,227.172,227.196,226.089,-0.13781,0.00909915,25,948,3
271.367,0.6004,0.193589,-0.0542558,-0.0889244,272.644,272.673,271.34,-0.0557191,0.00909915,25,949,3
223.663,1.3147,0.327717,-0.132028,-0.193954,225.824,225.873,223.622,-0.140226,0.0130575,25,950,3
268.463,0.83239,0.390809,-0.0379223,-0.122472,271.042,271.1,268.408,-0.0407428,0.0130575,25,951,3
305.356,0.31577,0.264263,-0.0114495,-0.0575736,306.76,306.808,305.309,-0.0118172,0.00454957,25,952,3
328.035,0.102468,0.282548,0.0132138,-0.0187819,329.535,329.587,327.984,0.013163,0.00454957,25,953,3
302.153,0.407417,0.528875,0.0191474,-0.0751403,304.96,305.057,302.057,0.0185404,0.00652877,25,954,3
324.652,0.0972616,0.560028,0.0535293,-0.0187747,327.622,327.724,324.55,0.0534256,0.00652877,25,955,3
305.341,0.317519,0.217537,-0.0114495,-0.0469828,306.776,306.808,305.309,-0.0118172,0.00454957,25,956,3
328.018,0.103067,0.232285,0.0132138,-0.0151521,329.552,329.587,327.984,0.013163,0.00454957,25,957,3
302.121,0.409949,0.434888,0.0191474,-0.0598073,304.992,305.057,302.057,0.0185404,0.00652877,25,958,3
324.618,0.0981349,0.459744,0.0535294,-0.0134854,327.656,327.724,324.55,0.0534256,0.00652877,25,959,3
-239.689,1.506,-0.931311,-1.65033,-0.275251,-244.633,-1.63431,-239.535,-244.803,0.151961,25,960,3
-65.1472,3.23966,-0.257442,-1.09101,-0.590687,-66.5158,0.536719,-65.1841,-68.1066,0.151961,25,961,3
-228.788,1.97627,-1.83886,-1.83141,-0.365334,-238.543,-1.8016,-228.482,-238.879,0.215295,25,962,3
-62.0486,4.7142,-0.521294,-1.15179,-0.863366,-64.818,1.01366,-62.1477,-66.8844,0.215295,25,963,3
-239.633,1.51456,-0.765862,-1.65033,-0.223446,-244.689,-1.63431,-239.535,-244.803,0.151961,25,964,3
-65.1319,3.2576,-0.212331,-1.09101,-0.482015,-66.5311,0.536719,-65.1841,-68.1066,0.151961,25,965,3
-228.677,1.98883,-1.51015,-1.83141,-0.289306,-238.654,-1.8016,-228.482,-238.879,0.215295,25,966,3
-62.0174,4.74154,-0.429377,-1.15179,-0.697783,-64.8492,1.01366,-62.1477,-66.8844,0.215295,25,967,3
65.5231,3.29457,0.256806,-0.621816,-0.60073,66.8877,66.9347,65.6886,-0.834277,0.0759804,25,968,3
152.693,2.68797,0.597805,-0.328569,-0.490231,155.869,155.978,152.638,-0.382616,0.0759804,25,969,3
62.4373,4.81823,0.518818,-0.554138,-0.88228,65.1926,65.2875,62.8189,-1.03072,0.107648,25,970,3
145.547,3.83,1.20247,-0.179819,-0.702457,151.932,152.151,145.443,-0.295239,0.107648,25,971,3
65.5078,3.31283,0.211615,-0.621816,-0.490156,66.903,66.9347,65.6886,-0.834277,0.0759804,25,972,3
152.657,2.7029,0.492435,-0.328569,-0.399803,155.905,155.978,152.638,-0.382616,0.0759804,25,973,3
62.4062,4.84613,0.427039,-0.554138,-0.713312,65.2237,65.2875,62.8189,-1.03072,0.107648,25,974,3
145.475,3.85254,0.989375,-0.179819,-0.565937,152.004,152.151,145.443,-0.295239,0.107648,25,975,3
218.14,1.92093,0.852761,-0.140678,-0.350554,222.67,222.825,218.003,-0.159462,0.0379902,25,976,3
261.852,1.23157,1.01951,-0.0259876,-0.22511,267.264,267.45,261.672,-0.0326347,0.0379902,25,977,3
208.065,2.60267,1.69977,0.0611439,-0.479155,217.086,217.397,207.79,0.0256068,0.0538238,25,978,3
249.945,1.53842,2.01203,0.19515,-0.28559,260.618,260.986,249.587,0.184598,0.0538238,25,979,3
218.089,1.93167,0.702108,-0.140678,-0.285512,222.721,222.825,218.003,-0.159462,0.0379902,25,980,3
261.79,1.23857,0.838659,-0.0259876,-0.182711,267.326,267.45,261.672,-0.0326347,0.0379902,25,981,3
207.962,2.61856,1.39755,0.0611439,-0.382873,217.189,217.397,207.79,0.0256068,0.0538238,25,982,3
249.823,1.54858,1.65263,0.19515,-0.224076,260.74,260.986,249.587,0.184598,0.0538238,25,983,3
294.694,0.623787,1.14129,0.0572082,-0.114568,300.75,300.959,294.487,0.0557108,0.0189951,25,984,3
316.643,0.165159,1.21847,0.1189,-0.0311822,323.105,323.328,316.421,0.118675,0.0189951,25,985,3
281.469,0.637233,2.23515,0.280866,-0.121715,293.321,293.73,281.063,0.278459,0.0269119,25,986,3
302.579,-0.0103632,2.37421,0.332781,-0.00394078,315.163,315.597,302.148,0.330161,0.0269119,25,987,3
294.625,0.62751,0.937916,0.0572082,-0.0920215,300.819,300.959,294.487,0.0557108,0.0189951,25,988,3
316.569,0.166417,1.00028,0.1189,-0.0235612,323.18,323.328,316.421,0.118675,0.0189951,25,989,3
281.333,0.642539,1.83416,0.280866,-0.0895765,293.457,293.73,281.063,0.278459,0.0269119,25,990,3
302.434,-0.00854646,1.94659,0.332781,0.00706277,315.308,315.597,302.148,0.330161,0.0269119,25,991,3
-203.744,3.10197,-3.85795,-1.84793,-0.564504,-224.222,-1.7565,-203.13,-224.927,0.620593,25,992,3
-55.3078,6.58498,-1.06164,-1.14883,-1.19848,-60.9458,1.85108,-55.603,-63.6504,0.620593,25,993,3
-159.144,4.44338,-7.51006,-1.57028,-0.803426,-199.054,-1.32493,-158.019,-200.425,0.873929,25,994,3
-43.2484,9.08921,-2.04653,-1.09957,-1.64898,-54.124,3.31703,-44.0323,-57.7567,0.873929,25,995,3
-203.511,3.11881,-3.17245,-1.84793,-0.462551,-224.454,-1.7565,-203.13,-224.927,0.620593,25,996,3
-55.244,6.62075,-0.873833,-1.14883,-0.981792,-61.0095,1.85108,-55.603,-63.6504,0.620593,25,997,3
-158.696,4.46582,-6.1898,-1.57028,-0.667488,-199.503,-1.32493,-158.019,-200.425,0.873929,25,998,3
-43.1262,9.13689,-1.68672,-1.09957,-1.36017,-54.2461,3.31703,-44.0323,-57.7567,0.873929,25,999,3
55.6487,6.70544,1.0636,-0.561027,-1.22038,61.2966,61.5015,56.577,-1.69426,0.310296,25,1000,3
129.704,5.46147,2.47463,-0.190504,-0.994003,142.844,143.296,129.557,-0.495453,0.310296,25,1001,3
43.526,9.25006,2.05408,-0.617072,-1.67825,54.4417,54.8893,45.5802,-3.11891,0.436965,25,1002,3
101.413,7.58944,4.78735,-0.329553,-1.37604,126.854,127.728,101.286,-1.07573,0.436965,25,1003,3
55.5848,6.74186,0.875287,-0.561027,-0.999779,61.3605,61.5015,56.577,-1.69426,0.310296,25,1004,3
129.556,5.49114,2.03616,-0.190504,-0.814279,142.993,143.296,129.557,-0.495453,0.310296,25,1005,3
43.4034,9.29861,1.69293,-0.617072,-1.38415,54.5643,54.8893,45.5802,-3.11891,0.436965,25,1006,3
101.128,7.62898,3.94568,-0.329553,-1.13653,127.14,127.728,101.286,-1.07573,0.436965,25,1007,3
185.374,3.90431,3.52422,0.0540188,-0.71061,204.084,204.727,184.838,-0.054076,0.155148,25,1008,3
222.611,2.52879,4.21427,0.199484,-0.460233,244.981,245.751,221.881,0.159832,0.155148,25,1009,3
144.882,5.5119,6.83705,-0.167575,-0.997933,181.216,182.463,143.916,-0.448808,0.218482,25,1010,3
173.913,3.6781,8.20202,-0.100228,-0.664187,217.5,218.997,172.53,-0.214318,0.218482,25,1011,3
185.161,3.92552,2.899,0.0540188,-0.582101,204.296,204.727,184.838,-0.054076,0.155148,25,1012,3
222.357,2.54253,3.46555,0.199484,-0.377045,245.235,245.751,221.881,0.159832,0.155148,25,1013,3
144.474,5.54016,5.63512,-0.167575,-0.82677,181.624,182.463,143.916,-0.448808,0.218482,25,1014,3
173.423,3.6964,6.76017,-0.100228,-0.553348,217.99,218.997,172.53,-0.214318,0.218482,25,1015,3
250.607,1.3344,4.72674,0.298733,-0.242811,275.694,276.558,249.754,0.288463,0.0775741,25,1016,3
269.323,0.448338,5.06418,0.363304,-0.0815163,296.198,297.123,268.4,0.361281,0.0775741,25,1017,3
195.722,2.08625,9.22419,-0.0712697,-0.374543,244.741,246.424,194.075,-0.107996,0.109241,25,1018,3
210.291,0.90537,9.90372,-0.0626074,-0.159776,262.922,264.729,208.494,-0.0720732,0.109241,25,1019,3
250.322,1.34164,3.88591,0.298733,-0.199005,275.979,276.558,249.754,0.288463,0.0775741,25,1020,3
269.017,0.450748,4.16238,0.363304,-0.0669234,296.504,297.123,268.4,0.361281,0.0775741,25,1021,3
195.171,2.09593,7.60263,-0.0712697,-0.315938,245.292,246.424,194.075,-0.107996,0.109241,25,1022,3
209.7,0.90868,8.1626,-0.0626074,-0.139725,263.513,264.729,208.494,-0.0720732,0.109241,25,1023,3
-117.323,5.10807,-10.9915,-1.41578,-0.934315,-175.746,-1.02598,-115.708,-177.751,0.531966,25,1024,3
-31.9628,11.3008,-2.9799,-1.05601,-2.06074,-47.7999,4.93065,-33.4871,-52.2624,0.531966,25,1025,3
-83.7836,5.88512,-13.7679,-1.57626,-1.06975,-156.946,-0.853127,-81.9947,-159.458,0.5953,25,1026,3
-22.7633,12.4555,-3.74623,-1.1217,-2.26499,-42.6692,6.4507,-25.3872,-47.6177,0.5953,25,1027,3
-116.668,5.13731,-9.06271,-1.41578,-0.757205,-176.401,-1.02598,-115.708,-177.751,0.531966,25,1028,3
-31.7851,11.3635,-2.45639,-1.05601,-1.68115,-47.9776,4.93065,-33.4871,-52.2624,0.531966,25,1029,3
-82.9616,5.91665,-11.3463,-1.57626,-0.87873,-157.768,-0.853127,-81.9947,-159.458,0.5953,25,1030,3
-22.5395,12.5225,-3.0869,-1.1217,-1.85888,-42.8931,6.4507,-25.3872,-47.6177,0.5953,25,1031,3
32.181,11.5302,2.99309,-0.667099,-2.10249,48.0885,48.6346,35.8873,-4.91951,0.265983,25,1032,3
74.9271,9.29534,6.98236,-0.440408,-1.69591,112.037,113.311,74.9484,-1.73549,0.265983,25,1033,3
22.9582,12.6868,3.7608,-0.600064,-2.30711,42.9419,43.6282,28.485,-6.81318,0.29765,25,1034,3
53.4585,10.3393,8.7672,-0.295367,-1.87995,100.045,101.645,54.0819,-2.51844,0.29765,25,1035,3
32.0025,11.5941,2.46738,-0.667099,-1.71536,48.267,48.6346,35.8873,-4.91951,0.265983,25,1036,3
74.5108,9.34717,5.75619,-0.440408,-1.38198,112.454,113.311,74.9484,-1.73549,0.265983,25,1037,3
22.7335,12.7551,3.09902,-0.600064,-1.89337,43.1666,43.6282,28.485,-6.81318,0.29765,25,1038,3
52.9349,10.3949,7.2246,-0.295367,-1.54328,100.569,101.645,54.0819,-2.51844,0.29765,25,1039,3
106.952,6.51872,9.9867,-0.31911,-1.19085,160.032,161.854,105.572,-0.761153,0.132991,25,1040,3
128.254,4.10183,12.0021,-0.275319,-0.751292,192.049,194.238,126.218,-0.428484,0.132991,25,1041,3
76.367,7.4042,12.5241,-0.13243,-1.34592,142.918,145.203,74.8942,-0.944825,0.148825,25,1042,3
91.6485,4.81753,15.0321,-0.0854123,-0.875436,171.528,174.271,89.2078,-0.387566,0.148825,25,1043,3
106.357,6.55556,8.23356,-0.31911,-0.967726,160.627,161.854,105.572,-0.761153,0.132991,25,1044,3
127.539,4.12564,9.89596,-0.275319,-0.607068,192.764,194.238,126.218,-0.428484,0.132991,25,1045,3
75.6191,7.44389,10.3208,-0.13243,-1.10551,143.666,145.203,74.8942,-0.944825,0.148825,25,1046,3
90.7509,4.84327,12.3881,-0.0854123,-0.719568,172.426,174.271,89.2078,-0.387566,0.148825,25,1047,3
144.218,2.04071,13.5189,-0.262915,-0.376554,216.077,218.543,141.787,-0.298264,0.0664957,25,1048,3
154.853,0.544048,14.5332,-0.266031,-0.104545,232.105,234.756,152.209,-0.272065,0.0664957,25,1049,3
103.113,2.57729,16.9152,-0.0867472,-0.468111,193.002,196.088,100.107,-0.166436,0.0744125,25,1050,3
110.755,0.91802,18.1721,-0.112946,-0.166589,207.325,210.64,107.453,-0.12588,0.0744125,25,1051,3
143.413,2.05345,11.1473,-0.262915,-0.299394,216.882,218.543,141.787,-0.298264,0.0664957,25,1052,3
153.988,0.54878,11.9841,-0.266031,-0.075882,232.971,234.756,152.209,-0.272065,0.0664957,25,1053,3
102.104,2.59099,13.9406,-0.0867472,-0.385176,194.011,196.088,100.107,-0.166436,0.0744125,25,1054,3
109.671,0.922849,14.977,-0.112946,-0.13734,208.409,210.64,107.453,-0.12588,0.0744125,25,1055,3
-56.5064,6.26596,-16.0204,-1.54698,-1.14343,-141.639,-0.359558,-54.7708,-144.562,0.3214,25,1056,3
-15.3588,13.5446,-4.35503,-1.0902,-2.46758,-38.4999,8.43275,-19.497,-43.8846,0.3214,25,1057,3
-36.7935,6.73655,-17.6546,-1.57184,-1.22561,-130.605,0.482249,-35.6261,-133.826,0.337234,25,1058,3
-10.0975,14.2067,-4.78021,-0.96696,-2.58464,-35.4979,10.3562,-15.778,-41.1406,0.337234,25,1059,3
-55.55,6.30097,-13.203,-1.54698,-0.931374,-142.596,-0.359558,-54.7708,-144.562,0.3214,25,1060,3
-15.0986,13.6189,-3.58862,-1.0902,-2.01714,-38.7601,8.43275,-19.497,-43.8846,0.3214,25,1061,3
-35.7389,6.77301,-14.5481,-1.57184,-1.00483,-131.66,0.482249,-35.6261,-133.826,0.337234,25,1062,3
-9.81195,14.2836,-3.93901,-0.96696,-2.11914,-35.7835,10.3562,-15.778,-41.1406,0.337234,25,1063,3
15.5262,13.7874,4.37334,-0.602168,-2.5118,38.7651,39.5631,23.2742,-9.14808,0.1607,25,1064,3
36.1318,11.1908,10.1945,-0.324174,-2.03919,90.303,92.1631,37.8487,-3.9012,0.1607,25,1065,3
9.98011,14.3272,4.84789,-0.440971,-2.60663,35.7401,36.6307,19.778,-11.1295,0.168617,25,1066,3
23.5215,11.5759,11.248,-0.184687,-2.10594,83.2899,85.3423,26.8294,-5.54508,0.168617,25,1067,3
15.265,13.8631,3.60384,-0.602168,-2.05332,39.0263,39.5631,23.2742,-9.14808,0.1607,25,1068,3
35.5229,11.2523,8.40083,-0.324174,-1.66618,90.9118,92.1631,37.8487,-3.9012,0.1607,25,1069,3
9.69051,14.4047,3.99474,-0.440971,-2.13702,36.0297,36.6307,19.778,-11.1295,0.168617,25,1070,3
22.8496,11.6385,9.26871,-0.184687,-1.72677,83.9618,85.3423,26.8294,-5.54508,0.168617,25,1071,3
51.6037,7.94036,14.5649,-0.177743,-1.44776,129,131.657,50.2832,-1.51472,0.0803501,25,1072,3
61.8823,5.07379,17.4888,-0.12683,-0.926387,154.818,158.009,59.1712,-0.606675,0.0803501,25,1073,3
33.7701,8.22701,16.0424,-0.0594784,-1.49661,119.015,121.942,33.0485,-2.26519,0.0843085,25,1074,3
40.6371,5.31839,19.2395,-0.0218075,-0.967501,142.87,146.381,37.9567,-0.852026,0.0843085,25,1075,3
50.734,7.98434,12.0027,-0.177743,-1.18142,129.869,131.657,50.2832,-1.51472,0.0803501,25,1076,3
60.8382,5.10231,14.413,-0.12683,-0.753694,155.862,158.009,59.1712,-0.606675,0.0803501,25,1077,3
32.8119,8.27147,13.2195,-0.0594784,-1.2273,119.973,121.942,33.0485,-2.26519,0.0843085,25,1078,3
39.4879,5.34714,15.8541,-0.0218075,-0.793384,144.019,146.381,37.9567,-0.852026,0.0843085,25,1079,3
69.5544,2.60487,19.6897,-0.114366,-0.477586,174.189,177.781,66.0765,-0.22894,0.040175,25,1080,3
74.6235,0.804346,21.1648,-0.123901,-0.150362,187.1,190.962,70.7779,-0.139739,0.040175,25,1081,3
45.785,2.81597,21.6408,-0.0182073,-0.512342,160.779,164.727,42.0476,-0.229328,0.0421542,25,1082,3
49.1919,0.972209,23.2463,-0.0443346,-0.177409,172.718,176.959,44.9811,-0.075129,0.0421542,25,1083,3
68.3792,2.62014,16.2278,-0.114366,-0.385066,175.364,177.781,66.0765,-0.22894,0.040175,25,1084,3
73.3607,0.809992,17.4446,-0.123901,-0.116166,188.363,190.962,70.7779,-0.139739,0.040175,25,1085,3
44.4925,2.83121,17.833,-0.0182073,-0.420012,162.071,164.727,42.0476,-0.229328,0.0421542,25,1086,3
47.8035,0.97764,19.1563,-0.0443346,-0.144512,174.106,176.959,44.9811,-0.075129,0.0421542,25,1087,3
-21.2084,7.10297,-18.9591,-1.59538,-1.29332,-121.952,1.87701,-21.2214,-125.412,0.174555,25,1088,3
-6.31043,14.854,-5.08236,-1.12098,-2.70345,-33.3164,12.1169,-13.63,-39.2347,0.174555,25,1089,3
-10.612,6.85848,-19.8525,-1.96392,-1.24846,-116.103,3.33661,-12.29,-119.725,0.178513,25,1090,3
-3.42313,14.7512,-5.40015,-2.8317,-2.68446,-32.1188,12.4143,-12.4406,-38.3473,0.178513,25,1091,3
-20.076,7.14174,-15.6233,-1.59538,-1.05849,-123.085,1.87701,-21.2214,-125.412,0.174555,25,1092,3
-6.00683,14.9347,-4.18799,-1.12098,-2.2147,-33.62,12.1169,-13.63,-39.2347,0.174555,25,1093,3
-9.42617,6.8958,-16.3593,-1.96392,-1.02238,-117.288,3.33661,-12.29,-119.725,0.178513,25,1094,3
-3.10065,14.8312,-4.45017,-2.8317,-2.19962,-32.4412,12.4143,-12.4406,-38.3473,0.178513,25,1095,3
5.29824,14.8275,5.25486,-0.542244,-2.69887,33.2202,34.1849,17.1995,-13.4082,0.0872773,25,1096,3
13.5387,11.7991,12.0861,-0.178736,-2.14776,77.759,79.9641,18.9896,-7.83476,0.0872773,25,1097,3
2.31447,15.6352,5.40246,-2.82494,-2.84646,31.016,32.0154,15.2756,-16.7854,0.0892564,25,1098,3
6.17522,12.9518,12.6542,-1.82403,-2.35907,73.4044,75.7153,14.5171,-12.4769,0.0892564,25,1099,3
4.98427,14.9081,4.32993,-0.542244,-2.2105,33.5341,34.1849,17.1995,-13.4082,0.0872773,25,1100,3
12.8166,11.8633,9.95884,-0.178736,-1.75892,78.4811,79.9641,18.9896,-7.83476,0.0872773,25,1101,3
1.9912,15.7204,4.45014,-2.82494,-2.33036,31.3393,32.0154,15.2756,-16.7854,0.0892564,25,1102,3
5.41815,13.0227,10.424,-1.82403,-1.92934,74.1614,75.7153,14.5171,-12.4769,0.0892564,25,1103,3
20.0684,8.22411,17.1674,-0.0263066,-1.49704,111.289,114.421,20.4409,-3.531,0.0436386,25,1104,3
24.5575,5.21686,20.5402,-0.00575912,-0.950059,133.701,137.45,22.1539,-1.35048,0.0436386,25,1105,3
9.79107,8.99592,18.0228,-0.751755,-1.63918,105.543,108.833,12.8367,-7.08792,0.0446282,25,1106,3
13.1398,5.48415,21.4755,-0.216219,-0.999046,127.242,131.16,12.0327,-3.02718,0.0446282,25,1107,3
19.0428,8.26886,14.1459,-0.0263066,-1.22596,112.314,114.421,20.4409,-3.531,0.0436386,25,1108,3
23.3305,5.24539,16.9257,-0.00575912,-0.777264,134.928,137.45,22.1539,-1.35048,0.0436386,25,1109,3
8.71287,9.04541,14.8465,-0.751755,-1.33946,106.621,108.833,12.8367,-7.08792,0.0446282,25,1110,3
11.8558,5.51424,17.6929,-0.216219,-0.816796,128.526,131.16,12.0327,-3.02718,0.0446282,25,1111,3
27.9426,2.69062,23.0708,-0.00604522,-0.491295,150.534,154.746,24.0637,-0.338228,0.0218193,25,1112,3
30.1227,0.898434,24.7687,-0.0522838,-0.164773,161.74,166.259,25.6558,-0.105037,0.0218193,25,1113,3
16.2041,2.64893,23.9869,0.032471,-0.481981,143.663,148.037,12.4942,-0.631831,0.0223141,25,1114,3
18.3359,0.893824,25.6348,-0.138171,-0.165246,154.561,159.24,13.8722,-0.353987,0.0223141,25,1115,3
26.5646,2.70575,19.0113,-0.00604522,-0.399649,151.912,154.746,24.0637,-0.338228,0.0218193,25,1116,3
28.6435,0.903719,20.4113,-0.0522838,-0.132764,163.219,166.259,25.6558,-0.105037,0.0218193,25,1117,3
14.7713,2.66328,19.766,0.032471,-0.395067,145.096,148.037,12.4942,-0.631831,0.0223141,25,1118,3
16.8056,0.899506,21.1268,-0.138171,-0.130834,156.091,159.24,13.8722,-0.353987,0.0223141,25,1119,3
-3.42908,5.79334,-20.4112,-2.4416,-1.05396,-111.935,5.09622,-7.24401,-115.657,0.0922591,25,1120,3
-0.555157,12.9553,-5.80271,-5.81057,-2.35753,-31.4007,10.9194,-11.0503,-37.6354,0.0922591,25,1121,3
0.196278,4.49972,-20.609,-2.38451,-0.818346,-109.362,6.59699,-5.02629,-113.121,0.0932817,25,1122,3
1.25946,9.71678,-6.04235,-7.54231,-1.76674,-30.8604,8.50696,-9.22007,-36.4301,0.0932817,25,1123,3
-2.21468,5.82467,-16.8337,-2.4416,-0.864184,-113.149,5.09622,-7.24401,-115.657,0.0922591,25,1124,3
-0.209748,13.0256,-4.78517,-5.81057,-1.93194,-31.7461,10.9194,-11.0503,-37.6354,0.0922591,25,1125,3
1.42233,4.52397,-16.9972,-2.38451,-0.671469,-110.588,6.59699,-5.02629,-113.121,0.0932817,25,1126,3
1.61908,9.76901,-4.98295,-7.54231,-1.45038,-31.22,8.50696,-9.22007,-36.4301,0.0932817,25,1127,3
2.03362,15.5235,5.05362,-8.80299,-2.82558,28.9058,29.8303,12.7352,-20.429,0.0461296,25,1128,3
1.95631,15.6454,12.6285,-8.82122,-2.85035,69.1024,71.4186,11.9179,-21.0991,0.0461296,25,1129,3
3.7413,11.5164,4.49118,-14.6672,-2.09134,27.6221,28.4479,8.89482,-20.6464,0.0466408,25,1130,3
4.07545,13.4067,11.5825,-21.789,-2.42439,65.6767,67.8596,8.50862,-28.405,0.0466408,25,1131,3
1.73369,15.6079,4.17006,-8.80299,-2.31422,29.2057,29.8303,12.7352,-20.429,0.0461296,25,1132,3
1.20633,15.7313,10.4191,-8.82122,-2.32996,69.8524,71.4186,11.9179,-21.0991,0.0461296,25,1133,3
3.47469,11.5775,3.70578,-14.6672,-1.72148,27.8888,28.4479,8.89482,-20.6464,0.0466408,25,1134,3
3.38932,13.4745,9.56122,-21.789,-2.0137,66.3628,67.8596,8.50862,-28.405,0.0466408,25,1135,3
0.825989,13.4054,18.5906,-6.07199,-2.44744,99.6676,103.091,9.46139,-18.1307,0.0230648,25,1136,3
1.23274,8.85101,22.4966,-2.59873,-1.62382,120.832,124.984,6.58933,-12.1073,0.0230648,25,1137,3
1.20411,16.7626,17.2976,-27.7074,-3.01589,93.2243,96.6849,7.30294,-37.2668,0.0233204,25,1138,3
-4.68693,20.6528,21.7528,-29.4679,-3.69274,111.033,116.044,5.96275,-45.1288,0.0233204,25,1139,3
-0.27859,13.4807,15.3366,-6.07199,-1.99149,100.772,103.091,9.46139,-18.1307,0.0230648,25,1140,3
-0.10496,8.90325,18.5558,-2.59873,-1.30742,122.169,124.984,6.58933,-12.1073,0.0230648,25,1141,3
0.181869,16.8424,14.2861,-27.7074,-2.53233,94.2466,96.6849,7.30294,-37.2668,0.0233204,25,1142,3
-5.97263,20.7437,17.9652,-29.4679,-3.14185,112.319,116.044,5.96275,-45.1288,0.0233204,25,1143,3
4.97465,3.86511,24.946,-0.676695,-0.720653,137.566,142.169,5.59575,-5.90138,0.0115324,25,1144,3
7.86957,2.03122,26.4297,-1.61754,-0.382092,148.363,153.284,8.77274,-7.44193,0.0115324,25,1145,3
-14.1776,22.5475,25.9893,-26.5077,-4.00028,124.049,131.149,6.07437,-53.8596,0.0116602,25,1146,3
-23.1077,17.1757,29.4103,-20.0946,-2.98403,133.166,142.955,6.59839,-59.5896,0.0116602,25,1147,3
3.48826,3.89163,20.5672,-0.676695,-0.55999,139.052,142.169,5.59575,-5.90138,0.0115324,25,1148,3
6.29645,2.04624,21.7955,-1.61754,-0.291099,149.936,153.284,8.77274,-7.44193,0.0115324,25,1149,3
-15.7169,22.6368,21.4549,-26.5077,-3.45968,125.589,131.149,6.07437,-53.8596,0.0116602,25,1150,3
-24.8649,17.2234,24.2339,-20.0946,-2.69529,134.923,142.955,6.59839,-59.5896,0.0116602,25,1151,3
-250.915,0.128311,-0.0146897,-1.6153,-0.0507379,-250.947,-1.61517,-250.909,-250.952,0.00167713,25,1152,3
-68.2454,0.273455,-0.0040186,-1.10911,-0.108095,-68.254,-0.183943,-68.2445,-69.1802,0.00167713,25,1153,3
-250.792,0.200596,-0.0353356,-1.61512,-0.0793076,-250.868,-1.61482,-250.779,-250.882,0.00266631,25,1154,3
-68.2118,0.427214,-0.00967434,-1.10918,-0.168875,-68.2325,-0.170956,-68.2096,-69.173,0.00266631,25,1155,3
-250.914,0.129936,-0.0136348,-1.6153,-0.0464276,-250.947,-1.61518,-250.909,-250.952,0.00167713,25,1156,3
-68.2452,0.27688,-0.00373025,-1.10911,-0.0990036,-68.2543,-0.183942,-68.2445,-69.1802,0.00167713,25,1157,3
-250.79,0.203105,-0.0328006,-1.61512,-0.0726301,-250.87,-1.61482,-250.779,-250.882,0.00266631,25,1158,3
-68.2112,0.432541,-0.00898156,-1.10918,-0.15471,-68.2331,-0.170956,-68.2096,-69.173,0.00266631,25,1159,3
68.6192,0.278566,0.00402664,-0.607235,-0.110118,68.6278,68.6294,68.6192,-0.608877,0.000838566,25,1160,3
159.899,0.226595,0.00939284,-0.305329,-0.0895773,159.919,159.923,159.896,-0.305739,0.000838566,25,1161,3
68.5855,0.435476,0.00969782,-0.60706,-0.172132,68.6063,68.6101,68.5856,-0.611001,0.00133315,25,1162,3
159.821,0.354068,0.0225787,-0.30522,-0.139964,159.869,159.878,159.813,-0.306201,0.00133315,25,1163,3
68.6189,0.282056,0.00373763,-0.607236,-0.100855,68.628,68.6294,68.6192,-0.608878,0.000838566,25,1164,3
159.899,0.229439,0.00871889,-0.305328,-0.082029,159.92,159.923,159.896,-0.305738,0.000838566,25,1165,3
68.5849,0.4409,0.00900316,-0.60706,-0.157708,68.6069,68.6101,68.5856,-0.611001,0.00133315,25,1166,3
159.819,0.358485,0.0209607,-0.305221,-0.128217,159.87,159.878,159.813,-0.306201,0.00133315,25,1167,3
228.415,0.161666,0.0134222,-0.128623,-0.0639195,228.444,228.449,228.41,-0.128764,0.000419283,25,1168,3
274.136,0.104558,0.0160684,-0.049571,-0.04135,274.17,274.177,274.13,-0.0496223,0.000419283,25,1169,3
228.303,0.252558,0.0321852,-0.128872,-0.0998458,228.372,228.385,228.291,-0.129207,0.000666576,25,1170,3
274.002,0.163494,0.0385701,-0.0502437,-0.0646451,274.084,274.1,273.987,-0.0503645,0.000666576,25,1171,3
228.414,0.163705,0.0124582,-0.128623,-0.0585099,228.445,228.449,228.41,-0.128763,0.000419283,25,1172,3
274.135,0.105888,0.0149149,-0.0495691,-0.0378238,274.172,274.177,274.13,-0.0496204,0.000419283,25,1173,3
228.301,0.255713,0.0298789,-0.128872,-0.0914492,228.374,228.385,228.291,-0.129207,0.000666576,25,1174,3
274,0.165542,0.035804,-0.0502438,-0.0591909,274.087,274.1,273.987,-0.0503645,0.000666576,25,1175,3
308.452,0.0553591,0.0180201,-0.0128778,-0.021904,308.491,308.498,308.445,-0.0128915,0.000209641,25,1176,3
331.345,0.0191171,0.0192452,-0.00186569,-0.00757653,331.386,331.394,331.338,-0.00186879,0.000209641,25,1177,3
308.301,0.0867702,0.0434435,-0.0137744,-0.0343167,308.394,308.411,308.284,-0.0138053,0.000333288,25,1178,3
331.183,0.0297094,0.0465519,-0.00213514,-0.0117642,331.283,331.301,331.165,-0.00214046,0.000333288,25,1179,3
308.451,0.0560725,0.0167218,-0.0128831,-0.0200044,308.492,308.498,308.445,-0.0128969,0.000209641,25,1180,3
331.344,0.0193773,0.0178651,-0.00186489,-0.00687176,331.388,331.394,331.338,-0.00186798,0.000209641,25,1181,3
308.298,0.0878626,0.0403295,-0.013774,-0.0314045,308.397,308.411,308.284,-0.0138049,0.000333288,25,1182,3
331.18,0.0300941,0.0431972,-0.00213332,-0.01074,331.285,331.301,331.165,-0.00213864,0.000333288,25,1183,3
-250.482,0.313999,-0.0876087,-1.6158,-0.124121,-250.669,-1.61507,-250.448,-250.704,0.00830233,25,1184,3
-68.1269,0.670655,-0.0239978,-1.10928,-0.265065,-68.1781,-0.140948,-68.121,-69.1523,0.00830233,25,1185,3
-249.9,0.459341,-0.185364,-1.61445,-0.181719,-250.296,-1.61289,-249.828,-250.369,0.0122607,25,1186,3
-67.9683,0.979787,-0.0505126,-1.10793,-0.387437,-68.0762,-0.0848245,-67.9562,-69.1113,0.0122607,25,1187,3
-250.477,0.317916,-0.0812929,-1.61581,-0.113715,-250.675,-1.61507,-250.448,-250.704,0.00830233,25,1188,3
-68.1254,0.678995,-0.0222758,-1.10928,-0.242907,-68.1797,-0.140948,-68.121,-69.1523,0.00830233,25,1189,3
-249.888,0.465166,-0.172014,-1.61445,-0.166241,-250.308,-1.61289,-249.828,-250.369,0.0122607,25,1190,3
-67.9651,0.992098,-0.0468901,-1.10793,-0.354728,-68.0793,-0.0848245,-67.9562,-69.1113,0.0122607,25,1191,3
68.5,0.682889,0.0241254,-0.60705,-0.26991,68.5516,68.5611,68.5003,-0.616817,0.00415116,25,1192,3
159.622,0.555112,0.0560333,-0.304829,-0.219407,159.742,159.764,159.603,-0.30726,0.00415116,25,1193,3
68.3412,0.997839,0.0506286,-0.608432,-0.394565,68.4493,68.4693,68.3418,-0.629114,0.00613036,25,1194,3
159.251,0.812273,0.118163,-0.306771,-0.321218,159.504,159.55,159.21,-0.311931,0.00613036,25,1195,3
68.4985,0.691387,0.0223924,-0.60705,-0.24733,68.5531,68.5611,68.5003,-0.616817,0.00415116,25,1196,3
159.619,0.562021,0.0519999,-0.304829,-0.201051,159.746,159.764,159.603,-0.30726,0.00415116,25,1197,3
68.338,1.01037,0.0469928,-0.608432,-0.361271,68.4525,68.4693,68.3418,-0.629114,0.00613036,25,1198,3
159.244,0.822493,0.109671,-0.306771,-0.294064,159.511,159.55,159.21,-0.311931,0.00613036,25,1199,3
228.021,0.395646,0.0798405,-0.128335,-0.156384,228.191,228.223,227.99,-0.129164,0.00207558,25,1200,3
273.663,0.25608,0.0956196,-0.0499424,-0.101217,273.867,273.905,273.626,-0.0502405,0.00207558,25,1201,3
227.489,0.580097,0.16902,-0.13139,-0.229436,227.85,227.917,227.424,-0.133158,0.00306518,25,1202,3
273.025,0.375786,0.20298,-0.052608,-0.148663,273.458,273.539,272.945,-0.053245,0.00306518,25,1203,3
228.016,0.400574,0.0740912,-0.128335,-0.143291,228.196,228.223,227.99,-0.129164,0.00207558,25,1204,3
273.657,0.259269,0.0887335,-0.0499424,-0.092746,273.873,273.905,273.626,-0.0502405,0.00207558,25,1205,3
227.478,0.587418,0.156876,-0.13139,-0.209985,227.861,227.917,227.424,-0.133158,0.00306518,25,1206,3
273.012,0.380551,0.188388,-0.052608,-0.136002,273.471,273.539,272.945,-0.053245,0.00306518,25,1207,3
307.92,0.135986,0.107532,-0.0136445,-0.0537447,308.15,308.192,307.878,-0.0137202,0.00103779,25,1208,3
330.775,0.04652,0.115197,-0.000887173,-0.0183875,331.021,331.067,330.729,-0.000899137,0.00103779,25,1209,3
307.204,0.197363,0.228112,-0.0138718,-0.0781291,307.691,307.782,307.114,-0.0140302,0.00153259,25,1210,3
330.016,0.0634177,0.242692,0.00251104,-0.0252076,330.534,330.63,329.92,0.00248759,0.00153259,25,1211,3
307.913,0.137676,0.0997859,-0.0136446,-0.0492542,308.157,308.192,307.878,-0.0137203,0.00103779,25,1212,3
330.768,0.0470994,0.106861,-0.000887275,-0.0168477,331.028,331.067,330.729,-0.000899239,0.00103779,25,1213,3
307.19,0.1999,0.21168,-0.0138718,-0.07139,307.706,307.782,307.114,-0.0140302,0.00153259,25,1214,3
330,0.0643005,0.225083,0.00251103,-0.0228622,330.549,330.63,329.92,0.00248759,0.00153259,25,1215,3
-248.524,0.686767,-0.416725,-1.61811,-0.271645,-249.414,-1.61457,-248.363,-249.579,0.0363966,25,1216,3
-67.5903,1.46424,-0.114349,-1.10822,-0.578919,-67.8346,0.0252236,-67.5627,-68.9956,0.0363966,25,1217,3
-246.02,0.960473,-0.838787,-1.63049,-0.380799,-247.81,-1.62348,-245.695,-248.142,0.0522301,25,1218,3
-66.8886,2.10299,-0.232845,-1.10017,-0.832392,-67.386,0.21191,-66.8331,-68.7536,0.0522301,25,1219,3
-248.498,0.695447,-0.386584,-1.61811,-0.248584,-249.44,-1.61457,-248.363,-249.579,0.0363966,25,1220,3
-67.5831,1.48258,-0.106148,-1.10822,-0.530185,-67.8418,0.0252236,-67.5627,-68.9956,0.0363966,25,1221,3
-245.966,0.9732,-0.777957,-1.63049,-0.346984,-247.863,-1.62348,-245.695,-248.142,0.0522301,25,1222,3
-66.874,2.12995,-0.2162,-1.10017,-0.760772,-67.4006,0.21191,-66.8331,-68.7536,0.0522301,25,1223,3
67.9625,1.48949,0.114577,-0.60839,-0.588941,68.2072,68.2525,67.9639,-0.655077,0.0181983,25,1224,3
158.373,1.213,0.265833,-0.306996,-0.479614,158.941,159.046,158.28,-0.318676,0.0181983,25,1225,3
67.2642,2.13596,0.232323,-0.612844,-0.845464,67.7604,67.8523,67.2683,-0.708879,0.0261151,25,1226,3
156.748,1.73889,0.540231,-0.314018,-0.688425,157.902,158.115,156.559,-0.338091,0.0261151,25,1227,3
67.9553,1.50817,0.106336,-0.60839,-0.539298,68.2144,68.2525,67.9639,-0.655077,0.0181983,25,1228,3
158.357,1.22821,0.246666,-0.306996,-0.439192,158.958,159.046,158.28,-0.318676,0.0181983,25,1229,3
67.2496,2.16335,0.215633,-0.612844,-0.77268,67.775,67.8523,67.2683,-0.708879,0.0261151,25,1230,3
156.714,1.76127,0.501365,-0.314018,-0.628942,157.936,158.115,156.559,-0.338091,0.0261151,25,1231,3
226.235,0.868392,0.379707,-0.133784,-0.343364,227.045,227.196,226.089,-0.13781,0.00909915,25,1232,3
271.519,0.564424,0.456054,-0.0542558,-0.223189,272.492,272.673,271.34,-0.0557191,0.00909915,25,1233,3
223.919,1.23554,0.771859,-0.132028,-0.489383,225.568,225.873,223.622,-0.140226,0.0130575,25,1234,3
268.77,0.782107,0.921003,-0.0379223,-0.310131,270.736,271.1,268.408,-0.0407428,0.0130575,25,1235,3
226.211,0.879287,0.352339,-0.133784,-0.314416,227.069,227.196,226.089,-0.13781,0.00909915,25,1236,3
271.49,0.571516,0.423148,-0.0542558,-0.204348,272.521,272.673,271.34,-0.0557191,0.00909915,25,1237,3
223.871,1.2516,0.71625,-0.132028,-0.446713,225.616,225.873,223.622,-0.140226,0.0130575,25,1238,3
268.711,0.792503,0.854384,-0.0379223,-0.28251,270.794,271.1,268.408,-0.0407428,0.0130575,25,1239,3
305.511,0.298471,0.51269,-0.0114495,-0.118071,306.605,306.808,305.309,-0.0118172,0.00454957,25,1240,3
328.201,0.0968347,0.547974,0.0132138,-0.0384115,329.37,329.587,327.984,0.013163,0.00454957,25,1241,3
302.462,0.38493,1.02576,0.0191474,-0.15318,304.651,305.057,302.057,0.0185404,0.00652877,25,1242,3
324.979,0.09173,1.0857,0.0535294,-0.0373888,327.295,327.724,324.55,0.0534256,0.00652877,25,1243,3
305.478,0.302252,0.475591,-0.0114495,-0.108025,306.638,306.808,305.309,-0.0118172,0.00454957,25,1244,3
328.166,0.0981306,0.508066,0.0132138,-0.0349683,329.405,329.587,327.984,0.013163,0.00454957,25,1245,3
302.397,0.390404,0.951137,0.0191474,-0.138635,304.717,305.057,302.057,0.0185404,0.00652877,25,1246,3
324.909,0.0936184,1.00608,0.0535293,-0.0323714,327.365,327.724,324.55,0.0534256,0.00652877,25,1247,3
-240.234,1.42337,-1.80633,-1.65033,-0.563769,-244.088,-1.63431,-239.535,-244.803,0.151961,25,1248,3
-65.2978,3.06217,-0.499714,-1.09101,-1.21136,-66.3651,0.536719,-65.1841,-68.1066,0.151961,25,1249,3
-229.863,1.86703,-3.56529,-1.83141,-0.743866,-237.468,-1.8016,-228.482,-238.879,0.215295,25,1250,3
-62.3535,4.45519,-1.01151,-1.15179,-1.76647,-64.5131,1.01366,-62.1477,-66.8844,0.215295,25,1251,3
-240.119,1.44186,-1.67496,-1.65033,-0.514628,-244.204,-1.63431,-239.535,-244.803,0.151961,25,1252,3
-65.2664,3.10097,-0.463897,-1.09101,-1.10828,-66.3966,0.536719,-65.1841,-68.1066,0.151961,25,1253,3
-229.634,1.89417,-3.3043,-1.83141,-0.671748,-237.696,-1.8016,-228.482,-238.879,0.215295,25,1254,3
-62.2895,4.5143,-0.938532,-1.15179,-1.6094,-64.5771,1.01366,-62.1477,-66.8844,0.215295,25,1255,3
65.6733,3.11407,0.498359,-0.621816,-1.23193,66.7375,66.9347,65.6886,-0.834277,0.0759804,25,1256,3
153.043,2.54068,1.16,-0.328569,-1.00521,155.519,155.978,152.638,-0.382616,0.0759804,25,1257,3
62.7407,4.55353,1.00652,-0.554138,-1.80532,64.8892,65.2875,62.8189,-1.03072,0.107648,25,1258,3
146.25,3.61937,2.33258,-0.179819,-1.43616,151.229,152.151,145.443,-0.295239,0.107648,25,1259,3
65.6419,3.15355,0.462479,-0.621816,-1.12704,66.7689,66.9347,65.6886,-0.834277,0.0759804,25,1260,3
152.969,2.57296,1.07634,-0.328569,-0.91943,155.593,155.978,152.638,-0.382616,0.0759804,25,1261,3
62.6768,4.61385,0.933649,-0.554138,-1.64504,64.9531,65.2875,62.8189,-1.03072,0.107648,25,1262,3
146.102,3.66811,2.16339,-0.179819,-1.30666,151.377,152.151,145.443,-0.295239,0.107648,25,1263,3
218.639,1.81563,1.6545,-0.140678,-0.718573,222.171,222.825,218.003,-0.159462,0.0379902,25,1264,3
262.448,1.16398,1.97756,-0.0259876,-0.461051,266.668,267.45,261.672,-0.0326347,0.0379902,25,1265,3
209.058,2.45918,3.29663,0.0611439,-0.977703,216.093,217.397,207.79,0.0256068,0.0538238,25,1266,3
251.121,1.45315,3.9012,0.19515,-0.580234,259.442,260.986,249.587,0.184598,0.0538238,25,1267,3
218.534,1.83885,1.53489,-0.140678,-0.656875,222.276,222.825,218.003,-0.159462,0.0379902,25,1268,3
262.322,1.17912,1.83397,-0.0259876,-0.420832,266.794,267.45,261.672,-0.0326347,0.0379902,25,1269,3
208.848,2.49355,3.05668,0.0611439,-0.886373,216.303,217.397,207.79,0.0256068,0.0538238,25,1270,3
250.871,1.47511,3.61585,0.19515,-0.521883,259.692,260.986,249.587,0.184598,0.0538238,25,1271,3
295.361,0.58945,2.21319,0.0572082,-0.234062,300.083,300.959,294.487,0.0557108,0.0189951,25,1272,3
317.356,0.155902,2.3622,0.1189,-0.0628039,322.393,323.328,316.421,0.118675,0.0189951,25,1273,3
282.776,0.601243,4.33273,0.280866,-0.243694,292.015,293.73,281.063,0.278459,0.0269119,25,1274,3
303.967,-0.0109328,4.60123,0.332781,-0.00184331,313.775,315.597,302.148,0.330161,0.0269119,25,1275,3
295.22,0.5975,2.05172,0.0572082,-0.212674,300.224,300.959,294.487,0.0557108,0.0189951,25,1276,3
317.204,0.158623,2.18896,0.1189,-0.0555748,322.545,323.328,316.421,0.118675,0.0189951,25,1277,3
282.497,0.612717,4.01435,0.280866,-0.213208,292.294,293.73,281.063,0.278459,0.0269119,25,1278,3
303.669,-0.00700436,4.26172,0.332781,0.0085944,314.073,315.597,302.148,0.330161,0.0269119,25,1279,3
-205.999,2.93224,-7.48262,-1.84793,-1.15882,-221.966,-1.7565,-203.13,-224.927,0.620593,25,1280,3
-55.9286,6.22464,-2.05961,-1.14883,-2.46012,-60.3249,1.85108,-55.603,-63.6504,0.620593,25,1281,3
-163.537,4.20126,-14.5749,-1.57028,-1.65485,-194.661,-1.32493,-158.019,-200.425,0.873929,25,1282,3
-44.4455,8.59286,-3.97171,-1.09957,-3.39051,-52.9269,3.31703,-44.0323,-57.7567,0.873929,25,1283,3
-205.522,2.96864,-6.93835,-1.84793,-1.06211,-222.443,-1.7565,-203.13,-224.927,0.620593,25,1284,3
-55.7979,6.302,-1.91049,-1.14883,-2.25457,-60.4557,1.85108,-55.603,-63.6504,0.620593,25,1285,3
-162.618,4.24979,-13.5267,-1.57028,-1.5259,-195.581,-1.32493,-158.019,-200.425,0.873929,25,1286,3
-44.1949,8.69597,-3.68603,-1.09957,-3.11655,-53.1774,3.31703,-44.0323,-57.7567,0.873929,25,1287,3
56.2707,6.33851,2.06331,-0.561027,-2.5051,60.6746,61.5015,56.577,-1.69426,0.310296,25,1288,3
131.151,5.16261,4.8004,-0.190504,-2.04038,141.397,143.296,129.557,-0.495453,0.310296,25,1289,3
44.7275,8.74491,3.98637,-0.617072,-3.4506,53.2402,54.8893,45.5802,-3.11891,0.436965,25,1290,3
104.214,7.17516,9.29085,-0.329553,-2.83023,124.054,127.728,101.286,-1.07573,0.436965,25,1291,3
56.1396,6.41727,1.91379,-0.561027,-2.29584,60.8057,61.5015,56.577,-1.69426,0.310296,25,1292,3
130.846,5.22677,4.45226,-0.190504,-1.8699,141.702,143.296,129.557,-0.495453,0.310296,25,1293,3
44.476,8.84991,3.69962,-0.617072,-3.17162,53.4917,54.8893,45.5802,-3.11891,0.436965,25,1294,3
103.628,7.26067,8.62259,-0.329553,-2.60303,124.64,127.728,101.286,-1.07573,0.436965,25,1295,3
187.434,3.69065,6.83595,0.0540188,-1.45865,202.023,204.727,184.838,-0.054076,0.155148,25,1296,3
225.075,2.39041,8.17376,0.199484,-0.944733,242.517,245.751,221.881,0.159832,0.155148,25,1297,3
148.881,5.21131,13.2688,-0.167575,-2.05408,177.217,182.463,143.916,-0.448808,0.218482,25,1298,3
178.71,3.47785,15.9178,-0.100228,-1.36899,212.703,218.997,172.53,-0.214318,0.218482,25,1299,3
186.999,3.73653,6.33954,0.0540188,-1.33675,202.458,204.727,184.838,-0.054076,0.155148,25,1300,3
224.554,2.42011,7.5793,0.199484,-0.865822,243.038,245.751,221.881,0.159832,0.155148,25,1301,3
148.044,5.27241,12.3145,-0.167575,-1.89172,178.054,182.463,143.916,-0.448808,0.218482,25,1302,3
177.706,3.51742,14.773,-0.100228,-1.26385,213.707,218.997,172.53,-0.214318,0.218482,25,1303,3
253.371,1.26139,9.16706,0.298733,-0.498475,272.93,276.558,249.754,0.288463,0.0775741,25,1304,3
272.284,0.423821,9.8209,0.363304,-0.167416,293.237,297.123,268.4,0.361281,0.0775741,25,1305,3
201.117,1.9731,17.9016,-0.0712697,-0.774355,239.346,246.424,194.075,-0.107996,0.109241,25,1306,3
216.084,0.856803,19.2203,-0.0626074,-0.333334,257.129,264.729,208.494,-0.0720732,0.109241,25,1307,3
252.786,1.27703,8.49946,0.298733,-0.456921,273.516,276.558,249.754,0.288463,0.0775741,25,1308,3
271.656,0.429031,9.10489,0.363304,-0.153574,293.865,297.123,268.4,0.361281,0.0775741,25,1309,3
199.988,1.99402,16.6141,-0.0712697,-0.718763,240.475,246.424,194.075,-0.107996,0.109241,25,1310,3
214.872,0.863961,17.8379,-0.0626074,-0.314315,258.341,264.729,208.494,-0.0720732,0.109241,25,1311,3
-123.753,4.82765,-21.3336,-1.41578,-1.9129,-169.316,-1.02598,-115.708,-177.751,0.531966,25,1312,3
-33.706,10.6817,-5.78336,-1.05601,-4.22583,-46.0568,4.93065,-33.4871,-52.2624,0.531966,25,1313,3
-91.8369,5.56334,-26.7188,-1.57626,-2.19732,-148.892,-0.853127,-81.9947,-159.458,0.5953,25,1314,3
-24.9545,11.7743,-7.26991,-1.1217,-4.65141,-40.478,6.4507,-25.3872,-47.6177,0.5953,25,1315,3
-122.41,4.89088,-19.8022,-1.41578,-1.7449,-170.659,-1.02598,-115.708,-177.751,0.531966,25,1316,3
-33.3414,10.8172,-5.3677,-1.05601,-3.86576,-46.4213,4.93065,-33.4871,-52.2624,0.531966,25,1317,3
-90.1508,5.63153,-24.7962,-1.57626,-2.01613,-150.578,-0.853127,-81.9947,-159.458,0.5953,25,1318,3
-24.4954,11.9192,-6.74641,-1.1217,-4.26619,-40.9371,6.4507,-25.3872,-47.6177,0.5953,25,1319,3
33.9318,10.8985,5.80904,-0.667099,-4.31152,46.3377,48.6346,35.8873,-4.91951,0.265983,25,1320,3
79.0115,8.78587,13.5516,-0.440408,-3.47676,107.953,113.311,74.9484,-1.73549,0.265983,25,1321,3
25.158,11.9929,7.29825,-0.600064,-4.73785,40.7421,43.6282,28.485,-6.81318,0.29765,25,1322,3
58.5867,9.77389,17.0138,-0.295367,-3.86093,94.9171,101.645,54.0819,-2.51844,0.29765,25,1323,3
33.5658,11.0367,5.39164,-0.667099,-3.94431,46.7037,48.6346,35.8873,-4.91951,0.265983,25,1324,3
78.1577,8.89795,12.5781,-0.440408,-3.17897,108.807,113.311,74.9484,-1.73549,0.265983,25,1325,3
24.6972,12.1406,6.77281,-0.600064,-4.34538,41.2029,43.6282,28.485,-6.81318,0.29765,25,1326,3
57.5126,9.89408,15.789,-0.295367,-3.54157,95.9912,101.645,54.0819,-2.51844,0.29765,25,1327,3
112.794,6.16114,19.3829,-0.31911,-2.4397,154.19,161.854,105.572,-0.761153,0.132991,25,1328,3
135.275,3.87644,23.295,-0.275319,-1.53708,185.028,194.238,126.218,-0.428484,0.132991,25,1329,3
83.6927,6.99936,24.3048,-0.13243,-2.76455,135.592,145.203,74.8942,-0.944825,0.148825,25,1330,3
100.441,4.55417,29.1721,-0.0854123,-1.79847,162.735,174.271,89.2078,-0.387566,0.148825,25,1331,3
111.573,6.2408,17.991,-0.31911,-2.22806,155.411,161.854,105.572,-0.761153,0.132991,25,1332,3
133.809,3.92793,21.6228,-0.275319,-1.40028,186.494,194.238,126.218,-0.428484,0.132991,25,1333,3
82.1586,7.08519,22.5554,-0.13243,-2.5365,137.127,145.203,74.8942,-0.944825,0.148825,25,1334,3
98.6002,4.60982,27.0729,-0.0854123,-1.65062,164.576,174.271,89.2078,-0.387566,0.148825,25,1335,3
152.126,1.92803,26.2395,-0.262915,-0.767441,208.168,218.543,141.787,-0.298264,0.0664957,25,1336,3
163.355,0.513198,28.2084,-0.266031,-0.208674,223.604,234.756,152.209,-0.272065,0.0664957,25,1337,3
113.008,2.43645,32.8269,-0.0867472,-0.961921,183.107,196.088,100.107,-0.166436,0.0744125,25,1338,3
121.385,0.867881,35.2667,-0.112946,-0.342485,196.695,210.64,107.453,-0.12588,0.0744125,25,1339,3
150.475,1.95558,24.3565,-0.262915,-0.694249,209.82,218.543,141.787,-0.298264,0.0664957,25,1340,3
161.58,0.523432,26.1845,-0.266031,-0.181486,225.379,234.756,152.209,-0.272065,0.0664957,25,1341,3
110.936,2.46606,30.4652,-0.0867472,-0.883251,185.178,196.088,100.107,-0.166436,0.0744125,25,1342,3
119.16,0.878323,32.7298,-0.112946,-0.31474,198.92,210.64,107.453,-0.12588,0.0744125,25,1343,3
-65.8773,5.92249,-31.0904,-1.54698,-2.34389,-132.268,-0.359558,-54.7708,-144.562,0.3214,25,1344,3
-17.9062,12.8029,-8.45138,-1.0902,-5.06258,-35.9525,8.43275,-19.497,-43.8846,0.3214,25,1345,3
-47.1201,6.36801,-34.2608,-1.57184,-2.5163,-120.278,0.482249,-35.6261,-133.826,0.337234,25,1346,3
-12.8936,13.4295,-9.27651,-0.96696,-5.30657,-32.7019,10.3562,-15.778,-41.1406,0.337234,25,1347,3
-63.9156,5.9982,-28.8535,-1.54698,-2.14274,-134.23,-0.359558,-54.7708,-144.562,0.3214,25,1348,3
-17.3725,12.9637,-7.84287,-1.0902,-4.63531,-36.4862,8.43275,-19.497,-43.8846,0.3214,25,1349,3
-44.957,6.44683,-31.7943,-1.57184,-2.30687,-122.441,0.482249,-35.6261,-133.826,0.337234,25,1350,3
-12.3078,13.5957,-8.60861,-0.96696,-4.86501,-33.2876,10.3562,-15.778,-41.1406,0.337234,25,1351,3
18.0843,13.0324,8.487,-0.602168,-5.15332,36.207,39.5631,23.2742,-9.14808,0.1607,25,1352,3
42.0948,10.5779,19.7837,-0.324174,-4.18322,84.34,92.1631,37.8487,-3.9012,0.1607,25,1353,3
12.8158,13.5433,9.40782,-0.440971,-5.35163,32.9044,36.6307,19.778,-11.1295,0.168617,25,1354,3
30.1007,10.9426,21.828,-0.184687,-4.32382,76.7107,85.3423,26.8294,-5.54508,0.168617,25,1355,3
17.5485,13.1961,7.87603,-0.602168,-4.71842,36.7428,39.5631,23.2742,-9.14808,0.1607,25,1356,3
40.8459,10.7111,18.3596,-0.324174,-3.82939,85.5889,92.1631,37.8487,-3.9012,0.1607,25,1357,3
12.2217,13.711,8.73044,-0.440971,-4.90617,33.4985,36.6307,19.778,-11.1295,0.168617,25,1358,3
28.7225,11.078,20.2565,-0.184687,-3.96415,78.0888,85.3423,26.8294,-5.54508,0.168617,25,1359,3
60.1232,7.50535,28.2653,-0.177743,-2.96903,120.48,131.657,50.2832,-1.51472,0.0803501,25,1360,3
72.1121,4.79557,33.94,-0.12683,-1.89844,144.588,158.009,59.1712,-0.606675,0.0803501,25,1361,3
43.1537,7.77696,31.1321,-0.0594784,-3.07286,109.631,121.942,33.0485,-2.26519,0.0843085,25,1362,3
51.8908,5.02745,37.3365,-0.0218075,-1.98648,131.617,146.381,37.9567,-0.852026,0.0843085,25,1363,3
58.3391,7.60043,26.2309,-0.177743,-2.71639,122.264,131.657,50.2832,-1.51472,0.0803501,25,1364,3
69.9705,4.85723,31.4978,-0.12683,-1.73462,146.73,158.009,59.1712,-0.606675,0.0803501,25,1365,3
41.1881,7.87311,28.8908,-0.0594784,-2.81741,111.597,121.942,33.0485,-2.26519,0.0843085,25,1366,3
49.5335,5.08961,34.6485,-0.0218075,-1.82131,133.974,146.381,37.9567,-0.852026,0.0843085,25,1367,3
81.0717,2.46164,38.2119,-0.114366,-0.976593,162.672,177.781,66.0765,-0.22894,0.040175,25,1368,3
87.0038,0.759557,41.0753,-0.123901,-0.304393,174.72,190.962,70.7779,-0.139739,0.040175,25,1369,3
58.4433,2.66191,41.9966,-0.0182073,-1.05187,148.121,164.727,42.0476,-0.229328,0.0421542,25,1370,3
62.7892,0.918917,45.1124,-0.0443346,-0.363669,159.12,176.959,44.9811,-0.075129,0.0421542,25,1371,3
78.6612,2.49467,35.4632,-0.114366,-0.888831,165.082,177.781,66.0765,-0.22894,0.040175,25,1372,3
84.4134,0.771766,38.1215,-0.123901,-0.271956,177.31,190.962,70.7779,-0.139739,0.040175,25,1373,3
55.792,2.69487,38.9733,-0.0182073,-0.964284,150.772,164.727,42.0476,-0.229328,0.0421542,25,1374,3
59.9414,0.930662,41.8651,-0.0443346,-0.332464,161.968,176.959,44.9811,-0.075129,0.0421542,25,1375,3
-32.298,6.71417,-36.7924,-1.59538,-2.65419,-110.863,1.87701,-21.2214,-125.412,0.174555,25,1376,3
-9.28322,14.0412,-9.86286,-1.12098,-5.54938,-30.3436,12.1169,-13.63,-39.2347,0.174555,25,1377,3
-22.2242,6.48313,-38.5261,-1.96392,-2.56249,-104.49,3.33661,-12.29,-119.725,0.178513,25,1378,3
-6.58184,13.944,-10.4798,-2.8317,-5.51069,-28.9601,12.4143,-12.4406,-38.3473,0.178513,25,1379,3
-29.9753,6.79801,-34.1439,-1.59538,-2.43143,-113.185,1.87701,-21.2214,-125.412,0.174555,25,1380,3
-8.66047,14.2157,-9.15275,-1.12098,-5.08577,-30.9664,12.1169,-13.63,-39.2347,0.174555,25,1381,3
-19.7919,6.56385,-35.7526,-1.96392,-2.34804,-106.923,3.33661,-12.29,-119.725,0.178513,25,1382,3
-5.92036,14.1171,-9.7255,-2.8317,-5.05079,-29.6215,12.4143,-12.4406,-38.3473,0.178513,25,1383,3
8.37191,14.0161,10.1975,-0.542244,-5.53972,30.1465,34.1849,17.1995,-13.4082,0.0872773,25,1384,3
20.6081,11.1534,23.4541,-0.178736,-4.40838,70.6896,79.9641,18.9896,-7.83476,0.0872773,25,1385,3
5.47429,14.7794,10.483,-2.82494,-5.84203,27.8562,32.0154,15.2756,-16.7854,0.0892564,25,1386,3
13.5765,12.2427,24.5547,-1.82403,-4.84051,66.003,75.7153,14.5171,-12.4769,0.0892564,25,1387,3
7.72788,14.1904,9.46311,-0.542244,-5.07646,30.7905,34.1849,17.1995,-13.4082,0.0872773,25,1388,3
19.1269,11.2922,21.7651,-0.178736,-4.03953,72.1708,79.9641,18.9896,-7.83476,0.0872773,25,1389,3
4.81119,14.9637,9.72691,-2.82494,-5.35248,28.5193,32.0154,15.2756,-16.7854,0.0892564,25,1390,3
12.0236,12.3961,22.784,-1.82403,-4.43288,67.556,75.7153,14.5171,-12.4769,0.0892564,25,1391,3
30.1099,7.77402,33.3149,-0.0263066,-3.07272,101.247,114.421,20.4409,-3.531,0.0436386,25,1392,3
36.5719,4.93127,39.8604,-0.00575912,-1.94956,121.687,137.45,22.1539,-1.35048,0.0436386,25,1393,3
20.3324,8.50328,34.9721,-0.751755,-3.3627,95.0012,108.833,12.8367,-7.08792,0.0446282,25,1394,3
25.7009,5.18387,41.6733,-0.216219,-2.04975,114.681,131.16,12.0327,-3.02718,0.0446282,25,1395,3
28.0061,7.87081,30.9159,-0.0263066,-2.81558,103.351,114.421,20.4409,-3.531,0.0436386,25,1396,3
34.0551,4.99296,36.9906,-0.00575912,-1.78565,124.204,137.45,22.1539,-1.35048,0.0436386,25,1397,3
18.1208,8.61029,32.4502,-0.751755,-3.07839,97.2129,108.833,12.8367,-7.08792,0.0446282,25,1398,3
23.0671,5.24894,38.67,-0.216219,-1.87688,117.315,131.16,12.0327,-3.02718,0.0446282,25,1399,3
41.4373,2.54307,44.7716,-0.00604522,-1.00677,137.04,154.746,24.0637,-0.338228,0.0218193,25,1400,3
44.6106,0.849025,48.0671,-0.0522838,-0.336883,147.252,166.259,25.6558,-0.105037,0.0218193,25,1401,3
30.2346,2.504,46.5492,0.032471,-0.9895,129.633,148.037,12.4942,-0.631831,0.0223141,25,1402,3
33.3306,0.844412,49.7489,-0.138171,-0.336448,139.566,159.24,13.8722,-0.353987,0.0223141,25,1403,3
38.6106,2.57579,41.5484,-0.00604522,-0.919836,139.866,154.746,24.0637,-0.338228,0.0218193,25,1404,3
41.5766,0.860453,44.6075,-0.0522838,-0.306519,150.286,166.259,25.6558,-0.105037,0.0218193,25,1405,3
27.2956,2.53503,43.1979,0.032471,-0.907056,132.572,148.037,12.4942,-0.631831,0.0223141,25,1406,3
30.1917,0.856698,46.1697,-0.138171,-0.303804,142.705,159.24,13.8722,-0.353987,0.0223141,25,1407,3
-15.3698,5.47641,-39.6191,-2.4416,-2.16393,-99.9938,5.09622,-7.24401,-115.657,0.0922591,25,1408,3
-3.94975,12.2465,-11.263,-5.81057,-4.83969,-28.0061,10.9194,-11.0503,-37.6354,0.0922591,25,1409,3
-11.8603,4.2536,-40.0033,-2.38451,-1.68047,-97.3053,6.59699,-5.02629,-113.121,0.0932817,25,1410,3
-2.27533,9.1854,-11.7283,-7.54231,-3.62844,-27.3256,8.50696,-9.22007,-36.4301,0.0932817,25,1411,3
-12.8788,5.54416,-36.7787,-2.4416,-1.98392,-102.485,5.09622,-7.24401,-115.657,0.0922591,25,1412,3
-3.24123,12.3984,-10.4551,-5.81057,-4.43599,-28.7146,10.9194,-11.0503,-37.6354,0.0922591,25,1413,3
-9.34535,4.30604,-37.1356,-2.38451,-1.54115,-99.8202,6.59699,-5.02629,-113.121,0.0932817,25,1414,3
-1.53767,9.29835,-10.8871,-7.54231,-3.32835,-28.0633,8.50696,-9.22007,-36.4301,0.0932817,25,1415,3
4.99032,14.6739,9.8107,-8.80299,-5.79976,25.9491,29.8303,12.7352,-20.429,0.0461296,25,1416,3
9.34461,14.7887,24.515,-8.82122,-5.84785,61.7141,71.4186,11.9179,-21.0991,0.0461296,25,1417,3
6.36891,10.8871,8.71871,-14.6672,-4.29789,24.9945,28.4479,8.89482,-20.6464,0.0466408,25,1418,3
10.8524,12.6761,22.4877,-21.789,-4.99332,58.8997,67.8596,8.50862,-28.405,0.0466408,25,1419,3
4.3751,14.8565,9.10918,-8.80299,-5.3147,26.5643,29.8303,12.7352,-20.429,0.0461296,25,1420,3
7.80625,14.9745,22.7609,-8.82122,-5.35421,63.2524,71.4186,11.9179,-21.0991,0.0461296,25,1421,3
5.82204,11.0192,8.09512,-14.6672,-3.94705,25.5414,28.4479,8.89482,-20.6464,0.0466408,25,1422,3
9.44503,12.8227,20.8829,-21.789,-4.60375,60.3071,67.8596,8.50862,-28.405,0.0466408,25,1423,3
11.7022,12.6704,36.088,-6.07199,-5.01568,88.7913,103.091,9.46139,-18.1307,0.0230648,25,1424,3
14.3938,8.36415,43.6684,-2.59873,-3.31937,107.671,124.984,6.58933,-12.1073,0.0230648,25,1425,3
11.3259,15.8521,33.5882,-27.7074,-6.22816,83.1025,96.6849,7.30294,-37.2668,0.0233204,25,1426,3
8.04182,19.5355,42.239,-29.4679,-7.65094,98.3042,116.044,5.96275,-45.1288,0.0233204,25,1427,3
9.43648,12.8332,33.5044,-6.07199,-4.58318,91.0571,103.091,9.46139,-18.1307,0.0230648,25,1428,3
11.6498,8.47711,40.5395,-2.59873,-3.01923,110.414,124.984,6.58933,-12.1073,0.0230648,25,1429,3
9.22905,16.0248,31.1972,-27.7074,-5.76946,85.1994,96.6849,7.30294,-37.2668,0.0233204,25,1430,3
5.40457,19.7322,39.2318,-29.4679,-7.12838,100.941,116.044,5.96275,-45.1288,0.0233204,25,1431,3
19.5675,3.65025,48.4173,-0.676695,-1.46085,122.973,142.169,5.59575,-5.90138,0.0115324,25,1432,3
23.331,1.91765,51.3002,-1.61754,-0.771021,132.902,153.284,8.77274,-7.44193,0.0115324,25,1433,3
1.02902,21.3339,50.4596,-26.5077,-8.32222,108.843,131.149,6.07437,-53.8596,0.0116602,25,1434,3
-5.90503,16.2636,57.0733,-20.0946,-6.27752,115.963,142.955,6.59839,-59.5896,0.0116602,25,1435,3
16.5186,3.70761,44.9407,-0.676695,-1.30845,126.022,142.169,5.59575,-5.90138,0.0115324,25,1436,3
20.1042,1.95013,47.6207,-1.61754,-0.684707,136.129,153.284,8.77274,-7.44193,0.0115324,25,1437,3
-2.1283,21.5269,46.8594,-26.5077,-7.80943,112,131.149,6.07437,-53.8596,0.0116602,25,1438,3
-9.5094,16.3666,52.9633,-20.0946,-6.00362,119.568,142.955,6.59839,-59.5896,0.0116602,25,1439,3
-250.913,0.131349,-0.0125206,-1.6153,-0.0422668,-250.948,-1.61518,-250.909,-250.952,0.00167713,25,1440,3
-68.2449,0.279933,-0.00342204,-1.10911,-0.090009,-68.2545,-0.183942,-68.2445,-69.1802,0.00167713,25,1441,3
-250.788,0.205348,-0.0301074,-1.61512,-0.0660211,-250.872,-1.61482,-250.779,-250.882,0.00266631,25,1442,3
-68.2107,0.43734,-0.00824338,-1.10918,-0.140575,-68.2337,-0.170956,-68.2096,-69.173,0.00266631,25,1443,3
-250.913,0.132683,-0.0113531,-1.6153,-0.0378577,-250.949,-1.61517,-250.909,-250.952,0.00167713,25,1444,3
-68.2447,0.282751,-0.00310367,-1.10911,-0.0807119,-68.2547,-0.183943,-68.2445,-69.1802,0.00167713,25,1445,3
-250.786,0.207423,-0.0273045,-1.61512,-0.0591962,-250.874,-1.61482,-250.779,-250.882,0.00266631,25,1446,3
-68.2102,0.441736,-0.00747699,-1.10918,-0.126094,-68.2342,-0.170956,-68.2096,-69.173,0.00266631,25,1447,3
68.6187,0.285167,0.00343084,-0.607236,-0.0916908,68.6283,68.6294,68.6192,-0.608878,0.000838566,25,1448,3
159.898,0.231963,0.00800402,-0.305328,-0.0745959,159.92,159.923,159.896,-0.305738,0.000838566,25,1449,3
68.5844,0.445796,0.008263,-0.60706,-0.143285,68.6074,68.6101,68.5856,-0.611001,0.00133315,25,1450,3
159.818,0.362459,0.019238,-0.305221,-0.11651,159.872,159.878,159.813,-0.306201,0.00133315,25,1451,3
68.6185,0.288037,0.00311133,-0.607235,-0.0822176,68.6285,68.6294,68.6192,-0.608877,0.000838566,25,1452,3
159.897,0.234301,0.00725855,-0.305329,-0.0668759,159.921,159.923,159.896,-0.305739,0.000838566,25,1453,3
68.5838,0.450273,0.0074947,-0.60706,-0.12854,68.6079,68.6101,68.5856,-0.611001,0.00133315,25,1454,3
159.817,0.366106,0.0174487,-0.30522,-0.104502,159.873,159.878,159.813,-0.306201,0.00133315,25,1455,3
228.413,0.165495,0.0114369,-0.128623,-0.0532384,228.445,228.449,228.41,-0.128763,0.000419283,25,1456,3
274.134,0.107033,0.0136936,-0.0495691,-0.0344531,274.172,274.177,274.13,-0.0496204,0.000419283,25,1457,3
228.299,0.258542,0.0274233,-0.128872,-0.0831169,228.376,228.385,228.291,-0.129207,0.000666576,25,1458,3
273.997,0.167366,0.0328636,-0.0502438,-0.0538162,274.089,274.1,273.987,-0.0503645,0.000666576,25,1459,3
228.413,0.16717,0.0103711,-0.128623,-0.0477052,228.446,228.449,228.41,-0.128764,0.000419283,25,1460,3
274.133,0.108123,0.012417,-0.049571,-0.0308455,274.173,274.177,274.13,-0.0496223,0.000419283,25,1461,3
228.298,0.26115,0.0248727,-0.128872,-0.0745344,228.378,228.385,228.291,-0.129207,0.000666576,25,1462,3
273.995,0.169062,0.0298049,-0.0502437,-0.0482422,274.091,274.1,273.987,-0.0503645,0.000666576,25,1463,3
308.45,0.0566632,0.015343,-0.0128831,-0.0182642,308.493,308.498,308.445,-0.0128969,0.000209641,25,1464,3
331.343,0.0195563,0.016418,-0.00186489,-0.0063444,331.389,331.394,331.338,-0.00186798,0.000209641,25,1465,3
308.296,0.0888239,0.0370183,-0.013774,-0.0285725,308.399,308.411,308.284,-0.0138049,0.000333288,25,1466,3
331.177,0.0304134,0.0396645,-0.00213332,-0.00979952,331.288,331.301,331.165,-0.00213864,0.000333288,25,1467,3
308.449,0.0572537,0.0139125,-0.0128778,-0.0163228,308.494,308.498,308.445,-0.0128915,0.000209641,25,1468,3
331.342,0.0197789,0.0148839,-0.00186569,-0.00562688,331.39,331.394,331.338,-0.00186879,0.000209641,25,1469,3
308.293,0.0897301,0.0335725,-0.0137744,-0.0255971,308.401,308.411,308.284,-0.0138053,0.000333288,25,1470,3
331.175,0.0307316,0.0359591,-0.00213514,-0.00875272,331.291,331.301,331.165,-0.00214046,0.000333288,25,1471,3
-250.471,0.321445,-0.0746514,-1.61581,-0.103319,-250.68,-1.61507,-250.448,-250.704,0.00830233,25,1472,3
-68.124,0.686556,-0.0204474,-1.10928,-0.220635,-68.1811,-0.140948,-68.121,-69.1523,0.00830233,25,1473,3
-249.878,0.470242,-0.157947,-1.61445,-0.151287,-250.318,-1.61289,-249.828,-250.369,0.0122607,25,1474,3
-67.9621,1.00303,-0.0430393,-1.10793,-0.322526,-68.0823,-0.0848245,-67.9562,-69.1113,0.0122607,25,1475,3
-250.467,0.324673,-0.0676665,-1.6158,-0.0926786,-250.684,-1.61507,-250.448,-250.704,0.00830233,25,1476,3
-68.1227,0.693428,-0.018543,-1.10928,-0.197979,-68.1823,-0.140948,-68.121,-69.1523,0.00830233,25,1477,3
-249.868,0.475043,-0.143182,-1.61445,-0.135462,-250.328,-1.61289,-249.828,-250.369,0.0122607,25,1478,3
-67.9595,1.01317,-0.0390331,-1.10793,-0.289082,-68.085,-0.0848245,-67.9562,-69.1113,0.0122607,25,1479,3
68.4971,0.69908,0.0205565,-0.60705,-0.22467,68.5545,68.5611,68.5003,-0.616817,0.00415116,25,1480,3
159.616,0.568273,0.0477452,-0.304829,-0.182632,159.749,159.764,159.603,-0.30726,0.00415116,25,1481,3
68.335,1.02151,0.0431388,-0.608432,-0.328459,68.4554,68.4693,68.3418,-0.629114,0.00613036,25,1482,3
159.237,0.831543,0.100683,-0.306771,-0.267405,159.518,159.55,159.21,-0.311931,0.00613036,25,1483,3
68.4958,0.706083,0.0186398,-0.60705,-0.201582,68.5558,68.5611,68.5003,-0.616817,0.00415116,25,1484,3
159.613,0.573967,0.0432846,-0.304829,-0.163863,159.752,159.764,159.603,-0.30726,0.00415116,25,1485,3
68.3323,1.03184,0.0391179,-0.608432,-0.294416,68.4581,68.4693,68.3418,-0.629114,0.00613036,25,1486,3
159.231,0.839965,0.0912918,-0.306771,-0.239641,159.524,159.55,159.21,-0.311931,0.00613036,25,1487,3
228.011,0.405027,0.0680311,-0.128335,-0.130174,228.201,228.223,227.99,-0.129164,0.00207558,25,1488,3
273.652,0.262152,0.0814764,-0.0499424,-0.0842524,273.879,273.905,273.626,-0.0502405,0.00207558,25,1489,3
227.469,0.593861,0.144017,-0.13139,-0.191005,227.871,227.917,227.424,-0.133158,0.00306518,25,1490,3
273,0.384704,0.172953,-0.052608,-0.123767,273.483,273.539,272.945,-0.053245,0.00306518,25,1491,3
228.007,0.409088,0.0616729,-0.128335,-0.116786,228.205,228.223,227.99,-0.129164,0.00207558,25,1492,3
273.647,0.264779,0.073861,-0.0499424,-0.0755908,273.884,273.905,273.626,-0.0502405,0.00207558,25,1493,3
227.46,0.599894,0.130587,-0.13139,-0.171117,227.879,227.917,227.424,-0.133158,0.00306518,25,1494,3
272.989,0.388631,0.156816,-0.052608,-0.110822,273.494,273.539,272.945,-0.053245,0.00306518,25,1495,3
307.907,0.13921,0.0916266,-0.0136446,-0.044736,308.163,308.192,307.878,-0.0137203,0.00103779,25,1496,3
330.761,0.0476227,0.0981636,-0.000887275,-0.0153061,331.035,331.067,330.729,-0.000899239,0.00103779,25,1497,3
307.177,0.202051,0.194372,-0.0138718,-0.0650537,307.719,307.782,307.114,-0.0140302,0.00153259,25,1498,3
329.986,0.0649306,0.206812,0.00251103,-0.0210059,330.563,330.63,329.92,0.00248759,0.00153259,25,1499,3
307.901,0.140603,0.0830606,-0.0136445,-0.0401445,308.169,308.192,307.878,-0.0137202,0.00103779,25,1500,3
330.755,0.0481004,0.0889449,-0.000887173,-0.0137318,331.041,331.067,330.729,-0.000899137,0.00103779,25,1501,3
307.165,0.204141,0.1762,-0.0138718,-0.0581632,307.731,307.782,307.114,-0.0140302,0.00153259,25,1502,3
329.973,0.0656581,0.187339,0.00251104,-0.0186078,330.576,330.63,329.92,0.00248759,0.00153259,25,1503,3
-248.474,0.703063,-0.355105,-1.61811,-0.226146,-249.464,-1.61457,-248.363,-249.579,0.0363966,25,1504,3
-67.5764,1.49897,-0.0974315,-1.10822,-0.481914,-67.8484,0.0252236,-67.5627,-68.9956,0.0363966,25,1505,3
-245.918,0.983322,-0.714777,-1.63049,-0.317166,-247.912,-1.62348,-245.695,-248.142,0.0522301,25,1506,3
-66.8603,2.15293,-0.198388,-1.10017,-0.693068,-67.4143,0.21191,-66.8331,-68.7536,0.0522301,25,1507,3
-248.451,0.710216,-0.32177,-1.61811,-0.202567,-249.487,-1.61457,-248.363,-249.579,0.0363966,25,1508,3
-67.5704,1.51408,-0.0883614,-1.10822,-0.432084,-67.8545,0.0252236,-67.5627,-68.9956,0.0363966,25,1509,3
-245.873,0.993811,-0.647505,-1.63049,-0.282591,-247.957,-1.62348,-245.695,-248.142,0.0522301,25,1510,3
-66.848,2.17514,-0.17998,-1.10017,-0.619838,-67.4266,0.21191,-66.8331,-68.7536,0.0522301,25,1511,3
67.9486,1.52482,0.0976286,-0.60839,-0.490263,68.2211,68.2525,67.9639,-0.655077,0.0181983,25,1512,3
158.341,1.24177,0.226516,-0.306996,-0.399253,158.973,159.046,158.28,-0.318676,0.0181983,25,1513,3
67.236,2.18668,0.197955,-0.612844,-0.703956,67.7886,67.8523,67.2683,-0.708879,0.0261151,25,1514,3
156.683,1.78019,0.46032,-0.314018,-0.573223,157.967,158.115,156.559,-0.338091,0.0261151,25,1515,3
67.9425,1.54021,0.0885145,-0.60839,-0.439504,68.2272,68.2525,67.9639,-0.655077,0.0181983,25,1516,3
158.327,1.2543,0.205319,-0.306996,-0.357922,158.987,159.046,158.28,-0.318676,0.0181983,25,1517,3
67.2237,2.20925,0.179497,-0.612844,-0.629536,67.8009,67.8523,67.2683,-0.708879,0.0261151,25,1518,3
156.654,1.79864,0.417337,-0.314018,-0.512403,157.996,158.115,156.559,-0.338091,0.0261151,25,1519,3
226.189,0.888989,0.323547,-0.133784,-0.285833,227.092,227.196,226.089,-0.13781,0.00909915,25,1520,3
271.463,0.577813,0.388607,-0.0542558,-0.185796,272.548,272.673,271.34,-0.0557191,0.00909915,25,1521,3
223.826,1.26491,0.657695,-0.132028,-0.407527,225.661,225.873,223.622,-0.140226,0.0130575,25,1522,3
268.658,0.800716,0.784815,-0.0379223,-0.258315,270.847,271.1,268.408,-0.0407428,0.0130575,25,1523,3
226.168,0.897968,0.293281,-0.133784,-0.256234,227.112,227.196,226.089,-0.13781,0.00909915,25,1524,3
271.439,0.583657,0.352216,-0.0542558,-0.166532,272.572,272.673,271.34,-0.0557191,0.00909915,25,1525,3
223.785,1.27814,0.596197,-0.132028,-0.363898,225.702,225.873,223.622,-0.140226,0.0130575,25,1526,3
268.609,0.809283,0.711141,-0.0379223,-0.230073,270.897,271.1,268.408,-0.0407428,0.0130575,25,1527,3
305.449,0.305554,0.436881,-0.0114495,-0.0982974,306.668,306.808,305.309,-0.0118172,0.00454957,25,1528,3
328.134,0.0991396,0.466982,0.0132138,-0.0319959,329.436,329.587,327.984,0.013163,0.00454957,25,1529,3
302.338,0.394124,0.874139,0.0191474,-0.127676,304.776,305.057,302.057,0.0185404,0.00652877,25,1530,3
324.847,0.0939789,0.925306,0.0535293,-0.0313093,327.426,327.724,324.55,0.0534256,0.00652877,25,1531,3
305.421,0.30867,0.395853,-0.0114495,-0.0880253,306.695,306.808,305.309,-0.0118172,0.00454957,25,1532,3
328.105,0.100208,0.422847,0.0132138,-0.0284754,329.466,329.587,327.984,0.013163,0.00454957,25,1533,3
302.283,0.398635,0.791612,0.0191474,-0.112805,304.831,305.057,302.057,0.0185404,0.00652877,25,1534,3
324.789,0.0955351,0.83725,0.0535294,-0.0261792,327.485,327.724,324.55,0.0534256,0.00652877,25,1535,3
-240.015,1.45719,-1.53932,-1.65033,-0.469469,-244.308,-1.63431,-239.535,-244.803,0.151961,25,1536,3
-65.2371,3.13484,-0.425778,-1.09101,-1.00849,-66.4258,0.536719,-65.1841,-68.1066,0.151961,25,1537,3
-229.43,1.91168,-3.0385,-1.83141,-0.620164,-237.9,-1.8016,-228.482,-238.879,0.215295,25,1538,3
-62.2307,4.56118,-0.861916,-1.15179,-1.47131,-64.6359,1.01366,-62.1477,-66.8844,0.215295,25,1539,3
-239.918,1.47243,-1.39404,-1.65033,-0.419224,-244.405,-1.63431,-239.535,-244.803,0.151961,25,1540,3
-65.2106,3.16682,-0.386168,-1.09101,-0.903093,-66.4523,0.536719,-65.1841,-68.1066,0.151961,25,1541,3
-229.237,1.93405,-2.74987,-1.83141,-0.546425,-238.093,-1.8016,-228.482,-238.879,0.215295,25,1542,3
-62.1768,4.6099,-0.781207,-1.15179,-1.31071,-64.6898,1.01366,-62.1477,-66.8844,0.215295,25,1543,3
65.6128,3.18797,0.424645,-0.621816,-1.02562,66.798,66.9347,65.6886,-0.834277,0.0759804,25,1544,3
152.902,2.60098,0.988436,-0.328569,-0.836887,155.66,155.978,152.638,-0.382616,0.0759804,25,1545,3
62.6185,4.66185,0.857695,-0.554138,-1.50364,65.0113,65.2875,62.8189,-1.03072,0.107648,25,1546,3
145.967,3.70555,1.98773,-0.179819,-1.19636,151.512,152.151,145.443,-0.295239,0.107648,25,1547,3
65.5863,3.22051,0.384965,-0.621816,-0.918373,66.8245,66.9347,65.6886,-0.834277,0.0759804,25,1548,3
152.84,2.62759,0.895915,-0.328569,-0.749182,155.722,155.978,152.638,-0.382616,0.0759804,25,1549,3
62.5647,4.71156,0.777107,-0.554138,-1.33976,65.0652,65.2875,62.8189,-1.03072,0.107648,25,1550,3
145.842,3.74572,1.80062,-0.179819,-1.06395,151.637,152.151,145.443,-0.295239,0.107648,25,1551,3
218.438,1.85874,1.40985,-0.140678,-0.598287,222.372,222.825,218.003,-0.159462,0.0379902,25,1552,3
262.208,1.19165,1.68521,-0.0259876,-0.383936,266.908,267.45,261.672,-0.0326347,0.0379902,25,1553,3
208.658,2.51786,2.80936,0.0611439,-0.814772,216.493,217.397,207.79,0.0256068,0.0538238,25,1554,3
250.647,1.48798,3.32475,0.19515,-0.483951,259.916,260.986,249.587,0.184598,0.0538238,25,1555,3
218.35,1.87787,1.27756,-0.140678,-0.535202,222.46,222.825,218.003,-0.159462,0.0379902,25,1556,3
262.102,1.20412,1.52641,-0.0259876,-0.342813,267.014,267.45,261.672,-0.0326347,0.0379902,25,1557,3
208.481,2.54619,2.54399,0.0611439,-0.721389,216.67,217.397,207.79,0.0256068,0.0538238,25,1558,3
250.436,1.50608,3.00918,0.19515,-0.424289,260.127,260.986,249.587,0.184598,0.0538238,25,1559,3
295.093,0.603496,1.88611,0.0572082,-0.195009,300.352,300.959,294.487,0.0557108,0.0189951,25,1560,3
317.069,0.159676,2.01322,0.1189,-0.052473,322.68,323.328,316.421,0.118675,0.0189951,25,1561,3
282.25,0.615894,3.69271,0.280866,-0.203849,292.541,293.73,281.063,0.278459,0.0269119,25,1562,3
303.408,-0.0107889,3.92173,0.332781,-0.00255441,314.334,315.597,302.148,0.330161,0.0269119,25,1563,3
294.973,0.61013,1.70754,0.0572082,-0.173141,300.471,300.959,294.487,0.0557108,0.0189951,25,1564,3
316.941,0.161918,1.82163,0.1189,-0.0450814,322.808,323.328,316.421,0.118675,0.0189951,25,1565,3
282.015,0.62535,3.34061,0.280866,-0.172678,292.776,293.73,281.063,0.278459,0.0269119,25,1566,3
303.157,-0.00755147,3.54626,0.332781,0.00811789,314.585,315.597,302.148,0.330161,0.0269119,25,1567,3
-205.091,3.00175,-6.37657,-1.84793,-0.964563,-222.874,-1.7565,-203.13,-224.927,0.620593,25,1568,3
-55.6786,6.37221,-1.75508,-1.14883,-2.04774,-60.5749,1.85108,-55.603,-63.6504,0.620593,25,1569,3
-161.768,4.30049,-12.4189,-1.57028,-1.37653,-196.431,-1.32493,-158.019,-200.425,0.873929,25,1570,3
-43.9633,8.79622,-3.3842,-1.09957,-2.82125,-53.409,3.31703,-44.0323,-57.7567,0.873929,25,1571,3
-204.689,3.03175,-5.77465,-1.84793,-0.86568,-223.277,-1.7565,-203.13,-224.927,0.620593,25,1572,3
-55.5684,6.43596,-1.59017,-1.14883,-1.83757,-60.6851,1.85108,-55.603,-63.6504,0.620593,25,1573,3
-160.993,4.34049,-11.2597,-1.57028,-1.24468,-197.205,-1.32493,-158.019,-200.425,0.873929,25,1574,3
-43.7522,8.88119,-3.06826,-1.09957,-2.54113,-53.6201,3.31703,-44.0323,-57.7567,0.873929,25,1575,3
56.0202,6.48878,1.75825,-0.561027,-2.08517,60.9251,61.5015,56.577,-1.69426,0.310296,25,1576,3
130.569,5.285,4.09069,-0.190504,-1.69836,141.98,143.296,129.557,-0.495453,0.310296,25,1577,3
44.2436,8.95186,3.3967,-0.617072,-2.87127,53.7241,54.8893,45.5802,-3.11891,0.436965,25,1578,3
103.086,7.3449,7.91653,-0.329553,-2.35489,125.182,127.728,101.286,-1.07573,0.436965,25,1579,3
55.9097,6.55368,1.59289,-0.561027,-1.87122,61.0355,61.5015,56.577,-1.69426,0.310296,25,1580,3
130.311,5.33788,3.70568,-0.190504,-1.52405,142.237,143.296,129.557,-0.495453,0.310296,25,1581,3
44.0317,9.03839,3.07958,-0.617072,-2.58602,53.936,54.8893,45.5802,-3.11891,0.436965,25,1582,3
102.592,7.41537,7.17749,-0.329553,-2.12259,125.676,127.728,101.286,-1.07573,0.436965,25,1583,3
186.605,3.77815,5.82538,0.0540188,-1.21414,202.853,204.727,184.838,-0.054076,0.155148,25,1584,3
224.083,2.44709,6.96554,0.199484,-0.786369,243.509,245.751,221.881,0.159832,0.155148,25,1585,3
147.271,5.33449,11.306,-0.167575,-1.70884,178.827,182.463,143.916,-0.448808,0.218482,25,1586,3
176.778,3.55994,13.5632,-0.100228,-1.13859,214.635,218.997,172.53,-0.214318,0.218482,25,1587,3
186.238,3.81596,5.2764,0.0540188,-1.0895,203.22,204.727,184.838,-0.054076,0.155148,25,1588,3
223.644,2.47156,6.30812,0.199484,-0.705685,243.948,245.751,221.881,0.159832,0.155148,25,1589,3
146.565,5.38485,10.2506,-0.167575,-1.54283,179.533,182.463,143.916,-0.448808,0.218482,25,1590,3
175.932,3.59255,12.2972,-0.100228,-1.03109,215.481,218.997,172.53,-0.214318,0.218482,25,1591,3
252.258,1.29129,7.81213,0.298733,-0.414908,274.043,276.558,249.754,0.288463,0.0775741,25,1592,3
271.092,0.433863,8.36943,0.363304,-0.139339,294.429,297.123,268.4,0.361281,0.0775741,25,1593,3
198.944,2.01952,15.2535,-0.0712697,-0.64365,241.519,246.424,194.075,-0.107996,0.109241,25,1594,3
213.751,0.876769,16.3772,-0.0626074,-0.276583,259.462,264.729,208.494,-0.0720732,0.109241,25,1595,3
251.765,1.30418,7.07382,0.298733,-0.372421,274.537,276.558,249.754,0.288463,0.0775741,25,1596,3
270.563,0.438156,7.57759,0.363304,-0.125185,294.958,297.123,268.4,0.361281,0.0775741,25,1597,3
197.993,2.03676,13.8297,-0.0712697,-0.586809,242.47,246.424,194.075,-0.107996,0.109241,25,1598,3
212.729,0.882668,14.8483,-0.0626074,-0.257136,260.483,264.729,208.494,-0.0720732,0.109241,25,1599,3
-121.163,4.94242,-18.1775,-1.41578,-1.59306,-171.906,-1.02598,-115.708,-177.751,0.531966,25,1600,3
-33.0039,10.9352,-4.92783,-1.05601,-3.51817,-46.7588,4.93065,-33.4871,-52.2624,0.531966,25,1601,3
-88.5935,5.69514,-22.7666,-1.57626,-1.82876,-152.136,-0.853127,-81.9947,-159.458,0.5953,25,1602,3
-24.072,12.0533,-6.1946,-1.1217,-3.87138,-41.3605,6.4507,-25.3872,-47.6177,0.5953,25,1603,3
-120.032,4.99453,-16.4839,-1.41578,-1.42128,-173.038,-1.02598,-115.708,-177.751,0.531966,25,1604,3
-32.6968,11.0468,-4.46815,-1.05601,-3.15001,-47.066,4.93065,-33.4871,-52.2624,0.531966,25,1605,3
-87.1728,5.75134,-20.6403,-1.57626,-1.64349,-153.557,-0.853127,-81.9947,-159.458,0.5953,25,1606,3
-23.6852,12.1727,-5.61567,-1.1217,-3.4775,-41.7473,6.4507,-25.3872,-47.6177,0.5953,25,1607,3
33.2266,11.1572,4.94969,-0.667099,-3.5895,47.0428,48.6346,35.8873,-4.91951,0.265983,25,1608,3
77.3665,8.99445,11.5469,-0.440408,-2.89469,109.598,113.311,74.9484,-1.73549,0.265983,25,1609,3
24.272,12.2771,6.21874,-0.600064,-3.94333,41.6281,43.6282,28.485,-6.81318,0.29765,25,1610,3
56.5214,10.0055,14.4972,-0.295367,-3.21342,96.9824,101.645,54.0819,-2.51844,0.29765,25,1611,3
32.9182,11.2711,4.48809,-0.667099,-3.21403,47.3513,48.6346,35.8873,-4.91951,0.265983,25,1612,3
76.6471,9.08682,10.4702,-0.440408,-2.59021,110.317,113.311,74.9484,-1.73549,0.265983,25,1613,3
23.8837,12.3988,5.63765,-0.600064,-3.54204,42.0164,43.6282,28.485,-6.81318,0.29765,25,1614,3
55.6163,10.1045,13.1427,-0.295367,-2.88689,97.8875,101.645,54.0819,-2.51844,0.29765,25,1615,3
110.441,6.30751,16.5155,-0.31911,-2.03152,156.543,161.854,105.572,-0.761153,0.132991,25,1616,3
132.448,3.96867,19.8487,-0.275319,-1.28026,187.856,194.238,126.218,-0.428484,0.132991,25,1617,3
80.7423,7.16518,20.7097,-0.13243,-2.30085,138.543,145.203,74.8942,-0.944825,0.148825,25,1618,3
96.9,4.66205,24.8571,-0.0854123,-1.49676,166.277,174.271,89.2078,-0.387566,0.148825,25,1619,3
109.413,6.37316,14.9761,-0.31911,-1.81512,157.572,161.854,105.572,-0.761153,0.132991,25,1620,3
131.212,4.0111,17.9994,-0.275319,-1.14038,189.091,194.238,126.218,-0.428484,0.132991,25,1621,3
79.4496,7.23591,18.7751,-0.13243,-2.06768,139.835,145.203,74.8942,-0.944825,0.148825,25,1622,3
95.3487,4.70791,22.5355,-0.0854123,-1.34558,167.828,174.271,89.2078,-0.387566,0.148825,25,1623,3
148.941,1.9741,22.3575,-0.262915,-0.639698,211.354,218.543,141.787,-0.298264,0.0664957,25,1624,3
159.931,0.525748,24.0351,-0.266031,-0.174663,227.028,234.756,152.209,-0.272065,0.0664957,25,1625,3
109.023,2.49414,27.9712,-0.0867472,-0.800511,187.092,196.088,100.107,-0.166436,0.0744125,25,1626,3
117.104,0.888422,30.05,-0.112946,-0.284989,200.976,210.64,107.453,-0.12588,0.0744125,25,1627,3
147.549,1.9968,20.2751,-0.262915,-0.564861,212.745,218.543,141.787,-0.298264,0.0664957,25,1628,3
158.435,0.534181,21.7969,-0.266031,-0.146863,228.523,234.756,152.209,-0.272065,0.0664957,25,1629,3
107.277,2.51854,25.3593,-0.0867472,-0.720072,188.837,196.088,100.107,-0.166436,0.0744125,25,1630,3
115.229,0.897028,27.2444,-0.112946,-0.256621,202.851,210.64,107.453,-0.12588,0.0744125,25,1631,3
-62.1032,6.0631,-26.4915,-1.54698,-1.95152,-136.043,-0.359558,-54.7708,-144.562,0.3214,25,1632,3
-16.8802,13.1066,-7.20131,-1.0902,-4.21439,-36.9785,8.43275,-19.497,-43.8846,0.3214,25,1633,3
-42.9611,6.51895,-29.1931,-1.57184,-2.09442,-124.437,0.482249,-35.6261,-133.826,0.337234,25,1634,3
-11.7675,13.7478,-7.90439,-0.96696,-4.41688,-33.828,10.3562,-15.778,-41.1406,0.337234,25,1635,3
-60.4502,6.12549,-24.0177,-1.54698,-1.74585,-137.696,-0.359558,-54.7708,-144.562,0.3214,25,1636,3
-16.4306,13.2391,-6.52835,-1.0902,-3.77751,-37.4281,8.43275,-19.497,-43.8846,0.3214,25,1637,3
-41.1385,6.58391,-26.4654,-1.57184,-1.88028,-126.26,0.482249,-35.6261,-133.826,0.337234,25,1638,3
-11.2739,13.8848,-7.16575,-0.96696,-3.96539,-34.3215,10.3562,-15.778,-41.1406,0.337234,25,1639,3
17.0541,13.3416,7.23165,-0.602168,-4.28993,37.2372,39.5631,23.2742,-9.14808,0.1607,25,1640,3
39.6933,10.8289,16.8574,-0.324174,-3.48244,86.7415,92.1631,37.8487,-3.9012,0.1607,25,1641,3
11.6737,13.8644,8.01629,-0.440971,-4.4544,34.0465,36.6307,19.778,-11.1295,0.168617,25,1642,3
27.4509,11.202,18.5993,-0.184687,-3.59888,79.3604,85.3423,26.8294,-5.54508,0.168617,25,1643,3
16.6026,13.4765,6.55598,-0.602168,-3.84525,37.6887,39.5631,23.2742,-9.14808,0.1607,25,1644,3
38.6409,10.9386,15.2824,-0.324174,-3.12065,87.7939,92.1631,37.8487,-3.9012,0.1607,25,1645,3
11.1732,14.0025,7.26716,-0.440971,-3.99893,34.547,36.6307,19.778,-11.1295,0.168617,25,1646,3
26.2897,11.3135,16.8614,-0.184687,-3.23113,80.5217,85.3423,26.8294,-5.54508,0.168617,25,1647,3
56.692,7.68346,24.0844,-0.177743,-2.4718,123.911,131.657,50.2832,-1.51472,0.0803501,25,1648,3
67.9921,4.90947,28.9196,-0.12683,-1.58072,148.708,158.009,59.1712,-0.606675,0.0803501,25,1649,3
39.3745,7.96128,26.5272,-0.0594784,-2.55764,113.41,121.942,33.0485,-2.26519,0.0843085,25,1650,3
47.3584,5.1466,31.8139,-0.0218075,-1.65341,136.149,146.381,37.9567,-0.852026,0.0843085,25,1651,3
55.1887,7.76182,21.8346,-0.177743,-2.21348,125.415,131.657,50.2832,-1.51472,0.0803501,25,1652,3
66.1875,4.96028,26.2188,-0.12683,-1.41323,150.513,158.009,59.1712,-0.606675,0.0803501,25,1653,3
37.7183,8.04052,24.0485,-0.0594784,-2.29645,115.066,121.942,33.0485,-2.26519,0.0843085,25,1654,3
45.3722,5.19783,28.8412,-0.0218075,-1.48454,138.135,146.381,37.9567,-0.852026,0.0843085,25,1655,3
76.4331,2.52024,32.5595,-0.114366,-0.813503,167.31,177.781,66.0765,-0.22894,0.040175,25,1656,3
82.0176,0.777839,34.9992,-0.123901,-0.254064,179.706,190.962,70.7779,-0.139739,0.040175,25,1657,3
53.3453,2.72501,35.7847,-0.0182073,-0.875517,153.219,164.727,42.0476,-0.229328,0.0421542,25,1658,3
57.313,0.940735,38.4396,-0.0443346,-0.30279,164.596,176.959,44.9811,-0.075129,0.0421542,25,1659,3
74.402,2.54746,29.5197,-0.114366,-0.723769,169.341,177.781,66.0765,-0.22894,0.040175,25,1660,3
79.835,0.7879,31.7326,-0.123901,-0.220898,181.889,190.962,70.7779,-0.139739,0.040175,25,1661,3
51.1112,2.75217,32.4412,-0.0182073,-0.785967,155.453,164.727,42.0476,-0.229328,0.0421542,25,1662,3
54.9134,0.950414,34.8483,-0.0443346,-0.270884,166.996,176.959,44.9811,-0.075129,0.0421542,25,1663,3
-27.8317,6.87339,-31.3503,-1.59538,-2.20938,-115.329,1.87701,-21.2214,-125.412,0.174555,25,1664,3
-8.08595,14.3741,-8.40402,-1.12098,-4.61916,-31.5409,12.1169,-13.63,-39.2347,0.174555,25,1665,3
-17.5474,6.63685,-32.8275,-1.96392,-2.13299,-109.167,3.33661,-12.29,-119.725,0.178513,25,1666,3
-5.30968,14.2746,-8.92964,-2.8317,-4.58691,-30.2322,12.4143,-12.4406,-38.3473,0.178513,25,1667,3
-25.8746,6.94248,-28.4212,-1.59538,-1.98162,-117.286,1.87701,-21.2214,-125.412,0.174555,25,1668,3
-7.56121,14.5179,-7.61869,-1.12098,-4.14513,-32.0656,12.1169,-13.63,-39.2347,0.174555,25,1669,3
-15.4979,6.70336,-29.7603,-1.96392,-1.91372,-111.217,3.33661,-12.29,-119.725,0.178513,25,1670,3
-4.75232,14.4172,-8.09548,-2.8317,-4.11667,-30.7896,12.4143,-12.4406,-38.3473,0.178513,25,1671,3
7.13401,14.3484,8.68917,-0.542244,-4.61116,31.3844,34.1849,17.1995,-13.4082,0.0872773,25,1672,3
17.761,11.4178,19.985,-0.178736,-3.66948,73.5367,79.9641,18.9896,-7.83476,0.0872773,25,1673,3
4.20172,15.1299,8.93263,-2.82494,-4.8629,29.1288,32.0154,15.2756,-16.7854,0.0892564,25,1674,3
10.5958,12.5331,20.9231,-1.82403,-4.02944,68.9838,75.7153,14.5171,-12.4769,0.0892564,25,1675,3
6.59135,14.4921,7.87701,-0.542244,-4.13749,31.9271,34.1849,17.1995,-13.4082,0.0872773,25,1676,3
16.5129,11.5322,18.1171,-0.178736,-3.29234,74.7848,79.9641,18.9896,-7.83476,0.0872773,25,1677,3
3.64299,15.2817,8.09643,-2.82494,-4.36235,29.6875,32.0154,15.2756,-16.7854,0.0892564,25,1678,3
9.28726,12.6595,18.9648,-1.82403,-3.61264,70.2923,75.7153,14.5171,-12.4769,0.0892564,25,1679,3
26.0658,7.95835,28.3872,-0.0263066,-2.5577,105.291,114.421,20.4409,-3.531,0.0436386,25,1680,3
31.7331,5.04822,33.9646,-0.00575912,-1.62287,126.526,137.45,22.1539,-1.35048,0.0436386,25,1681,3
16.087,8.705,29.7998,-0.751755,-2.79936,99.2466,108.833,12.8367,-7.08792,0.0446282,25,1682,3
20.6421,5.30683,35.5096,-0.216219,-1.70632,119.74,131.16,12.0327,-3.02718,0.0446282,25,1683,3
24.2931,8.0381,25.7342,-0.0263066,-2.29477,107.064,114.421,20.4409,-3.531,0.0436386,25,1684,3
29.6125,5.09906,30.7908,-0.00575912,-1.45527,128.646,137.45,22.1539,-1.35048,0.0436386,25,1685,3
14.2235,8.79319,27.0108,-0.751755,-2.50866,101.11,108.833,12.8367,-7.08792,0.0446282,25,1686,3
18.4228,5.36045,32.1883,-0.216219,-1.52956,121.959,131.16,12.0327,-3.02718,0.0446282,25,1687,3
36.0024,2.60347,38.1493,-0.00604522,-0.838288,142.475,154.746,24.0637,-0.338228,0.0218193,25,1688,3
38.7757,0.86924,40.9572,-0.0522838,-0.280633,153.087,166.259,25.6558,-0.105037,0.0218193,25,1689,3
24.5839,2.56335,39.6639,0.032471,-0.823612,135.283,148.037,12.4942,-0.631831,0.0223141,25,1690,3
27.2915,0.864608,42.3901,-0.138171,-0.2805,145.605,159.24,13.8722,-0.353987,0.0223141,25,1691,3
33.6206,2.63044,34.5847,-0.00604522,-0.749402,144.856,154.746,24.0637,-0.338228,0.0218193,25,1692,3
36.2191,0.878658,37.1311,-0.0522838,-0.249587,155.643,166.259,25.6558,-0.105037,0.0218193,25,1693,3
22.1075,2.58893,35.9577,0.032471,-0.739315,137.76,148.037,12.4942,-0.631831,0.0223141,25,1694,3
24.6467,0.874733,38.4317,-0.138171,-0.247123,148.25,159.24,13.8722,-0.353987,0.0223141,25,1695,3
-10.5605,5.60621,-33.7573,-2.4416,-1.80112,-104.803,5.09622,-7.24401,-115.657,0.0922591,25,1696,3
-2.58253,12.5368,-9.59669,-5.81057,-4.02837,-29.3733,10.9194,-11.0503,-37.6354,0.0922591,25,1697,3
-7.00427,4.3544,-34.0846,-2.38451,-1.39868,-102.161,6.59699,-5.02629,-113.121,0.0932817,25,1698,3
-0.851642,9.40304,-9.99308,-7.54231,-3.01992,-28.7493,8.50696,-9.22007,-36.4301,0.0932817,25,1699,3
-8.46156,5.66204,-30.6161,-2.4416,-1.61706,-106.902,5.09622,-7.24401,-115.657,0.0922591,25,1700,3
-1.98553,12.662,-8.70322,-5.81057,-3.61559,-29.9703,10.9194,-11.0503,-37.6354,0.0922591,25,1701,3
-4.88519,4.39762,-30.9132,-2.38451,-1.25622,-104.28,6.59699,-5.02629,-113.121,0.0932817,25,1702,3
-0.230083,9.49612,-9.06285,-7.54231,-2.71308,-29.3708,8.50696,-9.22007,-36.4301,0.0932817,25,1703,3
3.79942,15.0218,8.35893,-8.80299,-4.82762,27.14,29.8303,12.7352,-20.429,0.0461296,25,1704,3
6.36877,15.1395,20.8875,-8.82122,-4.8681,64.6899,71.4186,11.9179,-21.0991,0.0461296,25,1705,3
5.31056,11.1449,7.42855,-14.6672,-3.57664,26.0529,28.4479,8.89482,-20.6464,0.0466408,25,1706,3
8.12272,12.9755,19.1596,-21.789,-4.15357,61.6294,67.8596,8.50862,-28.405,0.0466408,25,1707,3
3.28103,15.1723,7.58311,-8.80299,-4.33166,27.6584,29.8303,12.7352,-20.429,0.0461296,25,1708,3
5.07253,15.2926,18.9476,-8.82122,-4.36337,65.9862,71.4186,11.9179,-21.0991,0.0461296,25,1709,3
4.84976,11.2537,6.73892,-14.6672,-3.21792,26.5137,28.4479,8.89482,-20.6464,0.0466408,25,1710,3
6.93683,13.0964,17.3848,-21.789,-3.75525,62.8153,67.8596,8.50862,-28.405,0.0466408,25,1711,3
7.32155,12.9713,30.7482,-6.07199,-4.17626,93.172,103.091,9.46139,-18.1307,0.0230648,25,1712,3
9.0929,8.56334,37.2073,-2.59873,-2.76522,112.971,124.984,6.58933,-12.1073,0.0230648,25,1713,3
7.24881,16.2255,28.6164,-27.7074,-5.17804,87.1797,96.6849,7.30294,-37.2668,0.0233204,25,1714,3
2.91463,19.9941,35.9868,-29.4679,-6.35687,103.431,116.044,5.96275,-45.1288,0.0233204,25,1715,3
5.41242,13.1055,27.8909,-6.07199,-3.73404,95.0811,103.091,9.46139,-18.1307,0.0230648,25,1716,3
6.78084,8.65643,33.747,-2.59873,-2.45834,115.283,124.984,6.58933,-12.1073,0.0230648,25,1717,3
5.48198,16.3678,25.9722,-27.7074,-4.70904,88.9465,96.6849,7.30294,-37.2668,0.0233204,25,1718,3
0.692458,20.1562,32.6611,-29.4679,-5.82257,105.654,116.044,5.96275,-45.1288,0.0233204,25,1719,3
13.6901,3.73798,41.2545,-0.676695,-1.21898,128.85,142.169,5.59575,-5.90138,0.0115324,25,1720,3
17.1037,1.96397,43.7104,-1.61754,-0.64395,139.129,153.284,8.77274,-7.44193,0.0115324,25,1721,3
-5.0961,21.8325,42.9917,-26.5077,-6.9091,114.968,131.149,6.07437,-53.8596,0.0116602,25,1722,3
-12.8333,16.6393,48.6315,-20.0946,-5.20039,122.891,142.955,6.59839,-59.5896,0.0116602,25,1723,3
11.1211,3.78524,37.4097,-0.676695,-1.06316,131.419,142.169,5.59575,-5.90138,0.0115324,25,1724,3
14.3847,1.99074,39.6412,-1.61754,-0.555697,141.848,153.284,8.77274,-7.44193,0.0115324,25,1725,3
-7.75648,21.9915,39.0101,-26.5077,-6.38478,117.628,131.149,6.07437,-53.8596,0.0116602,25,1726,3
-15.8704,16.7243,44.0862,-20.0946,-4.92034,125.929,142.955,6.59839,-59.5896,0.0116602,25,1727,3
-250.92,0.120591,-0.0182499,-1.6153,-0.0670518,-250.942,-1.61517,-250.909,-250.952,0.00167713,25,1728,3
-68.2466,0.257007,-0.00499199,-1.10911,-0.142863,-68.2528,-0.183943,-68.2445,-69.1802,0.00167713,25,1729,3
-250.803,0.188528,-0.0438983,-1.61512,-0.104812,-250.857,-1.61482,-250.779,-250.882,0.00266631,25,1730,3
-68.2147,0.401517,-0.0120191,-1.10918,-0.223193,-68.2296,-0.170956,-68.2096,-69.173,0.00266631,25,1731,3
-250.918,0.122765,-0.0174707,-1.6153,-0.0629905,-250.943,-1.61518,-250.909,-250.952,0.00167713,25,1732,3
-68.2463,0.261589,-0.00477877,-1.10911,-0.134297,-68.2531,-0.183942,-68.2445,-69.1802,0.00167713,25,1733,3
-250.8,0.191887,-0.0420249,-1.61512,-0.0985192,-250.86,-1.61482,-250.779,-250.882,0.00266631,25,1734,3
-68.2139,0.408647,-0.0115072,-1.10918,-0.209845,-68.2304,-0.170956,-68.2096,-69.173,0.00266631,25,1735,3
68.6204,0.261809,0.00500236,-0.607235,-0.145536,68.6266,68.6294,68.6192,-0.608877,0.000838566,25,1736,3
159.902,0.212964,0.0116691,-0.305329,-0.118388,159.916,159.923,159.896,-0.305739,0.000838566,25,1737,3
68.5884,0.409282,0.0120481,-0.60706,-0.2275,68.6034,68.6101,68.5856,-0.611001,0.00133315,25,1738,3
159.827,0.33277,0.0280505,-0.30522,-0.184982,159.862,159.878,159.813,-0.306201,0.00133315,25,1739,3
68.6201,0.266478,0.00478877,-0.607236,-0.136808,68.6269,68.6294,68.6192,-0.608878,0.000838566,25,1740,3
159.901,0.21677,0.0111711,-0.305328,-0.111275,159.917,159.923,159.896,-0.305738,0.000838566,25,1741,3
68.5876,0.416543,0.0115348,-0.60706,-0.213908,68.6042,68.6101,68.5856,-0.611001,0.00133315,25,1742,3
159.826,0.338682,0.0268549,-0.305221,-0.173912,159.864,159.878,159.813,-0.306201,0.00133315,25,1743,3
228.419,0.15194,0.0166746,-0.128623,-0.0844742,228.44,228.449,228.41,-0.128764,0.000419283,25,1744,3
274.141,0.0982658,0.0199624,-0.049571,-0.0546438,274.166,274.177,274.13,-0.0496223,0.000419283,25,1745,3
228.313,0.237365,0.0399851,-0.128872,-0.131957,228.363,228.385,228.291,-0.129207,0.000666576,25,1746,3
274.013,0.153657,0.0479169,-0.0502437,-0.0854323,274.073,274.1,273.987,-0.0503645,0.000666576,25,1747,3
228.418,0.154668,0.0159622,-0.128623,-0.0793772,228.441,228.449,228.41,-0.128763,0.000419283,25,1748,3
274.14,0.100045,0.0191102,-0.0495691,-0.0513214,274.167,274.177,274.13,-0.0496204,0.000419283,25,1749,3
228.31,0.241589,0.038281,-0.128872,-0.124044,228.365,228.385,228.291,-0.129207,0.000666576,25,1750,3
274.01,0.1564,0.0458728,-0.0502438,-0.0802921,274.076,274.1,273.987,-0.0503645,0.000666576,25,1751,3
308.458,0.0520264,0.0223836,-0.0128778,-0.0289425,308.486,308.498,308.445,-0.0128915,0.000209641,25,1752,3
331.351,0.0179646,0.0239123,-0.00186569,-0.010007,331.381,331.394,331.338,-0.00186879,0.000209641,25,1753,3
308.314,0.0815487,0.0539718,-0.0137744,-0.0453489,308.381,308.411,308.284,-0.0138053,0.000333288,25,1754,3
331.197,0.0279197,0.0578293,-0.00213514,-0.0155414,331.269,331.301,331.165,-0.00214046,0.000333288,25,1755,3
308.456,0.0529817,0.0214228,-0.0128831,-0.0271521,308.487,308.498,308.445,-0.0128969,0.000209641,25,1756,3
331.349,0.0183146,0.0228945,-0.00186489,-0.00934221,331.382,331.394,331.338,-0.00186798,0.000209641,25,1757,3
308.31,0.0830118,0.0516712,-0.013774,-0.0426042,308.384,308.411,308.284,-0.0138049,0.000333288,25,1758,3
331.193,0.0284348,0.0553491,-0.00213332,-0.0145762,331.272,331.301,331.165,-0.00213864,0.000333288,25,1759,3
-250.508,0.295112,-0.10883,-1.6158,-0.164045,-250.643,-1.61507,-250.448,-250.704,0.00830233,25,1760,3
-68.134,0.63032,-0.0298129,-1.10928,-0.350336,-68.1711,-0.140948,-68.121,-69.1523,0.00830233,25,1761,3
-249.955,0.431692,-0.230269,-1.61445,-0.24012,-250.241,-1.61289,-249.828,-250.369,0.0122607,25,1762,3
-67.9832,0.920834,-0.0627534,-1.10793,-0.51201,-68.0612,-0.0848245,-67.9562,-69.1113,0.0122607,25,1763,3
-250.501,0.300354,-0.104163,-1.61581,-0.154238,-250.65,-1.61507,-250.448,-250.704,0.00830233,25,1764,3
-68.1321,0.641481,-0.0285404,-1.10928,-0.329455,-68.173,-0.140948,-68.121,-69.1523,0.00830233,25,1765,3
-249.94,0.439488,-0.220403,-1.61445,-0.225535,-250.256,-1.61289,-249.828,-250.369,0.0122607,25,1766,3
-67.9792,0.937309,-0.0600766,-1.10793,-0.481188,-68.0652,-0.0848245,-67.9562,-69.1113,0.0122607,25,1767,3
68.5072,0.641816,0.029971,-0.60705,-0.356736,68.5444,68.5611,68.5003,-0.616817,0.00415116,25,1768,3
159.639,0.521724,0.0696081,-0.304829,-0.289987,159.725,159.764,159.603,-0.30726,0.00415116,25,1769,3
68.3561,0.937802,0.0628962,-0.608432,-0.521434,68.4344,68.4693,68.3418,-0.629114,0.00613036,25,1770,3
159.286,0.763397,0.146793,-0.306771,-0.424493,159.469,159.55,159.21,-0.311931,0.00613036,25,1771,3
68.5052,0.653189,0.0286904,-0.60705,-0.335459,68.5464,68.5611,68.5003,-0.616817,0.00415116,25,1772,3
159.634,0.53097,0.0666276,-0.304829,-0.27269,159.73,159.764,159.603,-0.30726,0.00415116,25,1773,3
68.3521,0.954571,0.0602095,-0.608432,-0.49006,68.4384,68.4693,68.3418,-0.629114,0.00613036,25,1774,3
159.277,0.777074,0.140518,-0.306771,-0.398905,159.478,159.55,159.21,-0.311931,0.00613036,25,1775,3
228.044,0.371849,0.0991821,-0.128335,-0.206689,228.168,228.223,227.99,-0.129164,0.00207558,25,1776,3
273.691,0.240678,0.118784,-0.0499424,-0.133776,273.839,273.905,273.626,-0.0502405,0.00207558,25,1777,3
227.539,0.545187,0.209973,-0.13139,-0.303191,227.8,227.917,227.424,-0.133158,0.00306518,25,1778,3
273.085,0.353167,0.252159,-0.052608,-0.196441,273.398,273.539,272.945,-0.053245,0.00306518,25,1779,3
228.038,0.378444,0.0949337,-0.128335,-0.194351,228.174,228.223,227.99,-0.129164,0.00207558,25,1780,3
273.684,0.244945,0.113695,-0.0499424,-0.125794,273.847,273.905,273.626,-0.0502405,0.00207558,25,1781,3
227.525,0.554984,0.200999,-0.13139,-0.284862,227.814,227.917,227.424,-0.133158,0.00306518,25,1782,3
273.069,0.359544,0.241376,-0.052608,-0.18451,273.415,273.539,272.945,-0.053245,0.00306518,25,1783,3
307.952,0.127808,0.133581,-0.0136445,-0.0710347,308.118,308.192,307.878,-0.0137202,0.00103779,25,1784,3
330.809,0.0437219,0.143093,-0.000887173,-0.0243023,330.987,331.067,330.729,-0.000899137,0.00103779,25,1785,3
307.272,0.185477,0.283371,-0.0138718,-0.103222,307.624,307.782,307.114,-0.0140302,0.00153259,25,1786,3
330.087,0.0595849,0.30145,0.00251104,-0.0332696,330.462,330.63,329.92,0.00248759,0.00153259,25,1787,3
307.943,0.130069,0.127857,-0.0136446,-0.0668032,308.127,308.192,307.878,-0.0137203,0.00103779,25,1788,3
330.8,0.0444974,0.136934,-0.000887275,-0.0228513,330.996,331.067,330.729,-0.000899239,0.00103779,25,1789,3
307.254,0.188871,0.271229,-0.0138718,-0.0968714,307.642,307.782,307.114,-0.0140302,0.00153259,25,1790,3
330.068,0.0607663,0.288438,0.00251103,-0.0310595,330.481,330.63,329.92,0.00248759,0.00153259,25,1791,3
-248.647,0.645435,-0.517644,-1.61811,-0.358962,-249.291,-1.61457,-248.363,-249.579,0.0363966,25,1792,3
-67.6241,1.37615,-0.14206,-1.10822,-0.765088,-67.8008,0.0252236,-67.5627,-68.9956,0.0363966,25,1793,3
-246.267,0.902552,-1.04187,-1.63049,-0.502908,-247.562,-1.62348,-245.695,-248.142,0.0522301,25,1794,3
-66.9573,1.97635,-0.289284,-1.10017,-1.09977,-67.3173,0.21191,-66.8331,-68.7536,0.0522301,25,1795,3
-248.614,0.65705,-0.495371,-1.61811,-0.337231,-249.324,-1.61457,-248.363,-249.579,0.0363966,25,1796,3
-67.615,1.40069,-0.135999,-1.10822,-0.719164,-67.8099,0.0252236,-67.5627,-68.9956,0.0363966,25,1797,3
-246.2,0.919584,-0.996925,-1.63049,-0.471044,-247.63,-1.62348,-245.695,-248.142,0.0522301,25,1798,3
-66.9389,2.01242,-0.276984,-1.10017,-1.03228,-67.3357,0.21191,-66.8331,-68.7536,0.0522301,25,1799,3
67.9963,1.39987,0.142336,-0.60839,-0.778319,68.1734,68.2525,67.9639,-0.655077,0.0181983,25,1800,3
158.452,1.14002,0.330225,-0.306996,-0.633838,158.862,159.046,158.28,-0.318676,0.0181983,25,1801,3
67.3328,2.00733,0.288615,-0.612844,-1.11703,67.6918,67.8523,67.2683,-0.708879,0.0261151,25,1802,3
156.908,1.63415,0.671114,-0.314018,-0.909506,157.742,158.115,156.559,-0.338091,0.0261151,25,1803,3
67.9872,1.42488,0.136246,-0.60839,-0.73154,68.1825,68.2525,67.9639,-0.655077,0.0181983,25,1804,3
158.431,1.16038,0.316062,-0.306996,-0.595748,158.884,159.046,158.28,-0.318676,0.0181983,25,1805,3
67.3143,2.04399,0.276281,-0.612844,-1.04844,67.7102,67.8523,67.2683,-0.708879,0.0261151,25,1806,3
156.865,1.66411,0.642393,-0.314018,-0.853454,157.785,158.115,156.559,-0.338091,0.0261151,25,1807,3
226.347,0.816144,0.471686,-0.133784,-0.453774,226.933,227.196,226.089,-0.13781,0.00909915,25,1808,3
271.653,0.530463,0.566518,-0.0542558,-0.294952,272.358,272.673,271.34,-0.0557191,0.00909915,25,1809,3
224.147,1.1611,0.958837,-0.132028,-0.646467,225.34,225.873,223.622,-0.140226,0.0130575,25,1810,3
269.041,0.734936,1.14404,-0.0379223,-0.409564,270.464,271.1,268.408,-0.0407428,0.0130575,25,1811,3
226.317,0.830725,0.451463,-0.133784,-0.426496,226.964,227.196,226.089,-0.13781,0.00909915,25,1812,3
271.617,0.539953,0.542202,-0.0542558,-0.277198,272.394,272.673,271.34,-0.0557191,0.00909915,25,1813,3
224.086,1.18259,0.917745,-0.132028,-0.606259,225.401,225.873,223.622,-0.140226,0.0130575,25,1814,3
268.968,0.748848,1.09481,-0.0379223,-0.383535,270.537,271.1,268.408,-0.0407428,0.0130575,25,1815,3
305.662,0.280506,0.636845,-0.0114495,-0.156019,306.454,306.808,305.309,-0.0118172,0.00454957,25,1816,3
328.362,0.0909926,0.680606,0.0132138,-0.0507223,329.208,329.587,327.984,0.013163,0.00454957,25,1817,3
302.765,0.361643,1.27406,0.0191474,-0.202113,304.348,305.057,302.057,0.0185404,0.00652877,25,1818,3
325.3,0.086065,1.34834,0.0535294,-0.0490421,326.974,327.724,324.55,0.0534256,0.00652877,25,1819,3
305.621,0.285566,0.60943,-0.0114495,-0.146552,306.495,306.808,305.309,-0.0118172,0.00454957,25,1820,3
328.318,0.0927268,0.651116,0.0132138,-0.0474777,329.252,329.587,327.984,0.013163,0.00454957,25,1821,3
302.683,0.368968,1.21891,0.0191474,-0.188407,304.431,305.057,302.057,0.0185404,0.00652877,25,1822,3
325.212,0.0885921,1.28951,0.0535293,-0.0443141,327.062,327.724,324.55,0.0534256,0.00652877,25,1823,3
-240.767,1.3376,-2.24358,-1.65033,-0.744732,-243.555,-1.63431,-239.535,-244.803,0.151961,25,1824,3
-65.4453,2.87786,-0.620815,-1.09101,-1.60069,-66.2176,0.536719,-65.1841,-68.1066,0.151961,25,1825,3
-230.916,1.75396,-4.42789,-1.83141,-0.981198,-236.415,-1.8016,-228.482,-238.879,0.215295,25,1826,3
-62.6521,4.1865,-1.25652,-1.15179,-2.33288,-64.2145,1.01366,-62.1477,-66.8844,0.215295,25,1827,3
-240.622,1.36236,-2.14651,-1.65033,-0.698426,-243.701,-1.63431,-239.535,-244.803,0.151961,25,1828,3
-65.4057,2.92978,-0.594348,-1.09101,-1.50356,-66.2572,0.536719,-65.1841,-68.1066,0.151961,25,1829,3
-230.627,1.79028,-4.23503,-1.83141,-0.913239,-236.704,-1.8016,-228.482,-238.879,0.215295,25,1830,3
-62.5714,4.26561,-1.20259,-1.15179,-2.18487,-64.2952,1.01366,-62.1477,-66.8844,0.215295,25,1831,3
65.8204,2.92663,0.61909,-0.621816,-1.62785,66.5904,66.9347,65.6886,-0.834277,0.0759804,25,1832,3
153.385,2.38774,1.44098,-0.328569,-1.32823,155.177,155.978,152.638,-0.382616,0.0759804,25,1833,3
63.0378,4.27893,1.25025,-0.554138,-2.38423,64.592,65.2875,62.8189,-1.03072,0.107648,25,1834,3
146.939,3.40095,2.89734,-0.179819,-1.89629,150.54,152.151,145.443,-0.295239,0.107648,25,1835,3
65.7808,2.97946,0.592577,-0.621816,-1.52902,66.63,66.9347,65.6886,-0.834277,0.0759804,25,1836,3
153.293,2.43094,1.37916,-0.328569,-1.2474,155.27,155.978,152.638,-0.382616,0.0759804,25,1837,3
62.9572,4.35966,1.1964,-0.554138,-2.23319,64.6726,65.2875,62.8189,-1.03072,0.107648,25,1838,3
146.752,3.46618,2.77232,-0.179819,-1.77426,150.727,152.151,145.443,-0.295239,0.107648,25,1839,3
219.127,1.7063,2.05519,-0.140678,-0.949412,221.682,222.825,218.003,-0.159462,0.0379902,25,1840,3
263.032,1.09385,2.45632,-0.0259876,-0.609037,266.084,267.45,261.672,-0.0326347,0.0379902,25,1841,3
210.031,2.31052,4.09459,0.0611439,-1.29033,215.119,217.397,207.79,0.0256068,0.0538238,25,1842,3
252.272,1.36498,4.84513,0.19515,-0.764944,258.291,260.986,249.587,0.184598,0.0538238,25,1843,3
218.995,1.73738,1.9668,-0.140678,-0.891274,221.815,222.825,218.003,-0.159462,0.0379902,25,1844,3
262.873,1.11411,2.35021,-0.0259876,-0.571138,266.243,267.45,261.672,-0.0326347,0.0379902,25,1845,3
209.766,2.35653,3.91727,0.0611439,-1.20426,215.385,217.397,207.79,0.0256068,0.0538238,25,1846,3
251.957,1.39437,4.63427,0.19515,-0.709959,258.606,260.986,249.587,0.184598,0.0538238,25,1847,3
296.015,0.553856,2.7488,0.0572082,-0.308998,299.43,300.959,294.487,0.0557108,0.0189951,25,1848,3
318.053,0.146371,2.93364,0.1189,-0.0826159,321.696,323.328,316.421,0.118675,0.0189951,25,1849,3
284.055,0.564291,5.38068,0.280866,-0.320087,290.736,293.73,281.063,0.278459,0.0269119,25,1850,3
305.325,-0.0110799,5.71376,0.332781,-0.000400521,312.417,315.597,302.148,0.330161,0.0269119,25,1851,3
295.836,0.564629,2.62948,0.0572082,-0.288844,299.608,300.959,294.487,0.0557108,0.0189951,25,1852,3
317.861,0.150012,2.80562,0.1189,-0.0758038,321.888,323.328,316.421,0.118675,0.0189951,25,1853,3
283.703,0.579646,5.14542,0.280866,-0.29136,291.088,293.73,281.063,0.278459,0.0269119,25,1854,3
304.949,-0.00582265,5.46288,0.332781,0.00943512,312.793,315.597,302.148,0.330161,0.0269119,25,1855,3
-208.208,2.7559,-9.29389,-1.84793,-1.53164,-219.757,-1.7565,-203.13,-224.927,0.620593,25,1856,3
-56.5366,5.85027,-2.55835,-1.14883,-3.25155,-59.7169,1.85108,-55.603,-63.6504,0.620593,25,1857,3
-167.84,3.94931,-18.1061,-1.57028,-2.18906,-190.359,-1.32493,-158.019,-200.425,0.873929,25,1858,3
-45.6179,8.0768,-4.93395,-1.09957,-4.4831,-51.7545,3.31703,-44.0323,-57.7567,0.873929,25,1859,3
-207.606,2.80461,-8.8917,-1.84793,-1.44051,-220.359,-1.7565,-203.13,-224.927,0.620593,25,1860,3
-56.3717,5.9538,-2.44816,-1.14883,-3.05786,-59.8818,1.85108,-55.603,-63.6504,0.620593,25,1861,3
-166.68,4.01426,-17.3315,-1.57028,-2.06756,-191.518,-1.32493,-158.019,-200.425,0.873929,25,1862,3
-45.302,8.21479,-4.72285,-1.09957,-4.22494,-52.0704,3.31703,-44.0323,-57.7567,0.873929,25,1863,3
56.8797,5.9573,2.56291,-0.561027,-3.31101,60.0655,61.5015,56.577,-1.69426,0.310296,25,1864,3
132.568,4.85212,5.96267,-0.190504,-2.69678,139.98,143.296,129.557,-0.495453,0.310296,25,1865,3
45.9043,8.2197,4.95216,-0.617072,-4.56252,52.0634,54.8893,45.5802,-3.11891,0.436965,25,1866,3
106.956,6.74436,11.5418,-0.329553,-3.74256,121.311,127.728,101.286,-1.07573,0.436965,25,1867,3
56.7144,6.0627,2.45243,-0.561027,-3.11382,60.2309,61.5015,56.577,-1.69426,0.310296,25,1868,3
132.183,4.93798,5.70542,-0.190504,-2.53613,140.365,143.296,129.557,-0.495453,0.310296,25,1869,3
45.5872,8.36022,4.74027,-0.617072,-4.29963,52.3806,54.8893,45.5802,-3.11891,0.436965,25,1870,3
106.217,6.85879,11.048,-0.329553,-3.52847,122.05,127.728,101.286,-1.07573,0.436965,25,1871,3
189.452,3.46869,8.4909,0.0540188,-1.9279,200.005,204.727,184.838,-0.054076,0.155148,25,1872,3
227.488,2.24665,10.1524,0.199484,-1.24866,240.104,245.751,221.881,0.159832,0.155148,25,1873,3
152.798,4.89861,16.4835,-0.167575,-2.71672,173.3,182.463,143.916,-0.448808,0.218482,25,1874,3
183.409,3.26941,19.7744,-0.100228,-1.81123,208.004,218.997,172.53,-0.214318,0.218482,25,1875,3
188.903,3.53009,8.12408,0.0540188,-1.81303,200.554,204.727,184.838,-0.054076,0.155148,25,1876,3
226.83,2.2864,9.71308,0.199484,-1.1743,240.761,245.751,221.881,0.159832,0.155148,25,1877,3
151.743,4.98039,15.7783,-0.167575,-2.56372,174.355,182.463,143.916,-0.448808,0.218482,25,1878,3
182.143,3.32237,18.9284,-0.100228,-1.71215,209.27,218.997,172.53,-0.214318,0.218482,25,1879,3
256.077,1.18554,11.3859,0.298733,-0.658855,270.225,276.558,249.754,0.288463,0.0775741,25,1880,3
275.183,0.398343,12.1977,0.363304,-0.221304,290.338,297.123,268.4,0.361281,0.0775741,25,1881,3
206.402,1.85514,22.2387,-0.0712697,-1.02527,234.061,246.424,194.075,-0.107996,0.109241,25,1882,3
221.758,0.805964,23.8769,-0.0626074,-0.442318,251.455,264.729,208.494,-0.0720732,0.109241,25,1883,3
255.339,1.20647,10.8925,0.298733,-0.619698,270.963,276.558,249.754,0.288463,0.0775741,25,1884,3
274.391,0.405315,11.6687,0.363304,-0.20826,291.13,297.123,268.4,0.361281,0.0775741,25,1885,3
204.978,1.88314,21.2873,-0.0712697,-0.972886,235.485,246.424,194.075,-0.107996,0.109241,25,1886,3
220.229,0.815543,22.8554,-0.0626074,-0.424396,252.983,264.729,208.494,-0.0720732,0.109241,25,1887,3
-130.051,4.53666,-26.503,-1.41578,-2.52667,-163.019,-1.02598,-115.708,-177.751,0.531966,25,1888,3
-35.4132,10.0387,-7.18461,-1.05601,-5.58391,-44.3495,4.93065,-33.4871,-52.2624,0.531966,25,1889,3
-99.7243,5.22893,-33.1919,-1.57626,-2.90469,-141.005,-0.853127,-81.9947,-159.458,0.5953,25,1890,3
-27.1006,11.0664,-9.03107,-1.1217,-6.14847,-38.3319,6.4507,-25.3872,-47.6177,0.5953,25,1891,3
-128.357,4.62128,-25.3714,-1.41578,-2.36836,-164.712,-1.02598,-115.708,-177.751,0.531966,25,1892,3
-34.9536,10.22,-6.87746,-1.05601,-5.24461,-44.8092,4.93065,-33.4871,-52.2624,0.531966,25,1893,3
-97.5981,5.3202,-31.7712,-1.57626,-2.73394,-143.131,-0.853127,-81.9947,-159.458,0.5953,25,1894,3
-26.5217,11.2604,-8.64424,-1.1217,-5.78546,-38.9109,6.4507,-25.3872,-47.6177,0.5953,25,1895,3
35.6467,10.2425,7.21654,-0.667099,-5.69718,44.6228,48.6346,35.8873,-4.91951,0.265983,25,1896,3
83.012,8.2569,16.8351,-0.440408,-4.5938,103.952,113.311,74.9484,-1.73549,0.265983,25,1897,3
27.3124,11.2719,9.06631,-0.600064,-6.26271,38.5877,43.6282,28.485,-6.81318,0.29765,25,1898,3
63.6092,9.18632,21.1356,-0.295367,-5.10364,89.8946,101.645,54.0819,-2.51844,0.29765,25,1899,3
35.1851,10.4275,6.9081,-0.667099,-5.35115,45.0844,48.6346,35.8873,-4.91951,0.265983,25,1900,3
81.9354,8.40689,16.1157,-0.440408,-4.31319,105.029,113.311,74.9484,-1.73549,0.265983,25,1901,3
26.7313,11.4696,8.67804,-0.600064,-5.89288,39.1688,43.6282,28.485,-6.81318,0.29765,25,1902,3
62.2547,9.34717,20.2305,-0.295367,-4.80271,91.2491,101.645,54.0819,-2.51844,0.29765,25,1903,3
118.516,5.78999,24.0795,-0.31911,-3.22302,148.468,161.854,105.572,-0.761153,0.132991,25,1904,3
142.152,3.64265,28.9397,-0.275319,-2.02991,178.151,194.238,126.218,-0.428484,0.132991,25,1905,3
90.8675,6.57863,30.1929,-0.13243,-3.65449,128.418,145.203,74.8942,-0.944825,0.148825,25,1906,3
109.053,4.28047,36.2396,-0.0854123,-2.37752,154.124,174.271,89.2078,-0.387566,0.148825,25,1907,3
116.977,5.89659,23.0509,-0.31911,-3.02358,150.008,161.854,105.572,-0.761153,0.132991,25,1908,3
140.303,3.71155,27.704,-0.275319,-1.90099,180,194.238,126.218,-0.428484,0.132991,25,1909,3
88.9328,6.69349,28.9002,-0.13243,-3.4396,130.352,145.203,74.8942,-0.944825,0.148825,25,1910,3
106.731,4.35494,34.6883,-0.0854123,-2.2382,156.445,174.271,89.2078,-0.387566,0.148825,25,1911,3
159.872,1.81137,32.5979,-0.262915,-1.01253,200.422,218.543,141.787,-0.298264,0.0664957,25,1912,3
171.683,0.481571,35.044,-0.266031,-0.273875,215.276,234.756,152.209,-0.272065,0.0664957,25,1913,3
122.698,2.29005,40.7799,-0.0867472,-1.27171,173.417,196.088,100.107,-0.166436,0.0744125,25,1914,3
131.796,0.815753,43.8109,-0.112946,-0.452836,186.284,210.64,107.453,-0.12588,0.0744125,25,1915,3
157.79,1.84823,31.2064,-0.262915,-0.943564,202.505,218.543,141.787,-0.298264,0.0664957,25,1916,3
169.444,0.495265,33.5484,-0.266031,-0.248254,217.515,234.756,152.209,-0.272065,0.0664957,25,1917,3
120.086,2.32967,39.0347,-0.0867472,-1.19758,176.029,196.088,100.107,-0.166436,0.0744125,25,1918,3
128.99,0.829727,41.9363,-0.112946,-0.426691,189.09,210.64,107.453,-0.12588,0.0744125,25,1919,3
-75.0552,5.56588,-38.6227,-1.54698,-3.09688,-123.091,-0.359558,-54.7708,-144.562,0.3214,25,1920,3
-20.401,12.0326,-10.4988,-1.0902,-6.69039,-33.4577,8.43275,-19.497,-43.8846,0.3214,25,1921,3
-57.2338,5.98509,-42.5608,-1.57184,-3.32596,-110.165,0.482249,-35.6261,-133.826,0.337234,25,1922,3
-15.632,12.622,-11.5238,-0.96696,-7.01408,-29.9635,10.3562,-15.778,-41.1406,0.337234,25,1923,3
-72.5814,5.6672,-36.9697,-1.54698,-2.90733,-125.564,-0.359558,-54.7708,-144.562,0.3214,25,1924,3
-19.728,12.2478,-10.0491,-1.0902,-6.28776,-34.1307,8.43275,-19.497,-43.8846,0.3214,25,1925,3
-54.5061,6.09057,-40.7382,-1.57184,-3.12861,-112.892,0.482249,-35.6261,-133.826,0.337234,25,1926,3
-14.8933,12.8444,-11.0303,-0.96696,-6.59799,-30.7021,10.3562,-15.778,-41.1406,0.337234,25,1927,3
20.5897,12.2483,10.5431,-0.602168,-6.81031,33.7016,39.5631,23.2742,-9.14808,0.1607,25,1928,3
47.935,9.94139,24.5765,-0.324174,-5.52813,78.4998,92.1631,37.8487,-3.9012,0.1607,25,1929,3
15.5929,12.7289,11.6869,-0.440971,-7.07361,30.1273,36.6307,19.778,-11.1295,0.168617,25,1930,3
36.5443,10.2846,27.116,-0.184687,-5.71513,70.2671,85.3423,26.8294,-5.54508,0.168617,25,1931,3
19.914,12.4674,10.0916,-0.602168,-6.40049,34.3773,39.5631,23.2742,-9.14808,0.1607,25,1932,3
46.36,10.1196,23.5241,-0.324174,-5.1947,80.0748,92.1631,37.8487,-3.9012,0.1607,25,1933,3
14.8438,12.9533,11.1864,-0.440971,-6.65384,30.8764,36.6307,19.778,-11.1295,0.168617,25,1934,3
34.8063,10.4658,25.9547,-0.184687,-5.37621,72.005,85.3423,26.8294,-5.54508,0.168617,25,1935,3
68.4671,7.0536,35.113,-0.177743,-3.92327,112.136,131.657,50.2832,-1.51472,0.0803501,25,1936,3
82.1312,4.50675,42.1625,-0.12683,-2.50814,134.569,158.009,59.1712,-0.606675,0.0803501,25,1937,3
52.3439,7.30934,38.6741,-0.0594784,-4.06167,100.441,121.942,33.0485,-2.26519,0.0843085,25,1938,3
62.9125,4.72515,46.3815,-0.0218075,-2.6257,120.595,146.381,37.9567,-0.852026,0.0843085,25,1939,3
66.2173,7.18085,33.6097,-0.177743,-3.68521,114.386,131.657,50.2832,-1.51472,0.0803501,25,1940,3
79.4304,4.58926,40.3579,-0.12683,-2.35378,137.27,158.009,59.1712,-0.606675,0.0803501,25,1941,3
49.8651,7.438,37.0179,-0.0594784,-3.82095,102.92,121.942,33.0485,-2.26519,0.0843085,25,1942,3
59.9398,4.80834,44.3953,-0.0218075,-2.47006,123.568,146.381,37.9567,-0.852026,0.0843085,25,1943,3
92.3519,2.31311,47.4696,-0.114366,-1.28955,151.391,177.781,66.0765,-0.22894,0.040175,25,1944,3
99.1293,0.713328,51.027,-0.123901,-0.400931,162.595,190.962,70.7779,-0.139739,0.040175,25,1945,3
70.8407,2.50184,52.1707,-0.0182073,-1.39032,135.723,164.727,42.0476,-0.229328,0.0421542,25,1946,3
76.1064,0.863588,56.0414,-0.0443346,-0.4805,145.803,176.959,44.9811,-0.075129,0.0421542,25,1947,3
89.3121,2.35731,45.4385,-0.114366,-1.20685,154.431,177.781,66.0765,-0.22894,0.040175,25,1948,3
95.8627,0.729666,48.8443,-0.123901,-0.370365,165.861,190.962,70.7779,-0.139739,0.040175,25,1949,3
67.4972,2.54595,49.9367,-0.0182073,-1.30779,139.067,164.727,42.0476,-0.229328,0.0421542,25,1950,3
72.5151,0.879305,53.6418,-0.0443346,-0.451095,149.394,176.959,44.9811,-0.075129,0.0421542,25,1951,3
-43.1591,6.31029,-45.7058,-1.59538,-3.50786,-100.002,1.87701,-21.2214,-125.412,0.174555,25,1952,3
-12.1947,13.1967,-12.2522,-1.12098,-7.33465,-27.4321,12.1169,-13.63,-39.2347,0.174555,25,1953,3
-33.597,6.0932,-47.8594,-1.96392,-3.38679,-93.1175,3.33661,-12.29,-119.725,0.178513,25,1954,3
-9.67546,13.1055,-13.0186,-2.8317,-7.28361,-25.8664,12.4143,-12.4406,-38.3473,0.178513,25,1955,3
-40.2301,6.42249,-43.7486,-1.59538,-3.29795,-102.931,1.87701,-21.2214,-125.412,0.174555,25,1956,3
-11.4094,13.4303,-11.7275,-1.12098,-6.89778,-28.2174,12.1169,-13.63,-39.2347,0.174555,25,1957,3
-30.5298,6.20121,-45.8099,-1.96392,-3.18471,-96.1848,3.33661,-12.29,-119.725,0.178513,25,1958,3
-8.84131,13.3371,-12.4613,-2.8317,-6.85024,-26.7006,12.4143,-12.4406,-38.3473,0.178513,25,1959,3
11.3822,13.1731,12.6679,-0.542244,-7.32179,27.1362,34.1849,17.1995,-13.4082,0.0872773,25,1960,3
27.5317,10.4825,29.136,-0.178736,-5.82648,63.7659,79.9641,18.9896,-7.83476,0.0872773,25,1961,3
8.56882,13.8904,13.0223,-2.82494,-7.72115,24.7617,32.0154,15.2756,-16.7854,0.0892564,25,1962,3
20.825,11.5061,30.5025,-1.82403,-6.39709,58.7546,75.7153,14.5171,-12.4769,0.0892564,25,1963,3
10.57,13.4064,12.1252,-0.542244,-6.88525,27.9484,34.1849,17.1995,-13.4082,0.0872773,25,1964,3
25.6638,10.6683,27.8879,-0.178736,-5.4789,65.6338,79.9641,18.9896,-7.83476,0.0872773,25,1965,3
7.73262,14.137,12.4635,-2.82494,-7.25984,25.5979,32.0154,15.2756,-16.7854,0.0892564,25,1966,3
18.8667,11.7115,29.194,-1.82403,-6.01297,60.7129,75.7153,14.5171,-12.4769,0.0892564,25,1967,3
39.9444,7.30645,41.3855,-0.0263066,-4.06115,91.4128,114.421,20.4409,-3.531,0.0436386,25,1968,3
48.3386,4.63461,49.5169,-0.00575912,-2.57654,109.92,137.45,22.1539,-1.35048,0.0436386,25,1969,3
30.656,7.99161,43.4433,-0.751755,-4.44383,84.6777,108.833,12.8367,-7.08792,0.0446282,25,1970,3
38.0027,4.87198,51.7682,-0.216219,-2.70885,102.379,131.16,12.0327,-3.02718,0.0446282,25,1971,3
37.2914,7.43596,39.6128,-0.0263066,-3.81884,94.0658,114.421,20.4409,-3.531,0.0436386,25,1972,3
45.1648,4.71717,47.3963,-0.00575912,-2.42209,113.094,137.45,22.1539,-1.35048,0.0436386,25,1973,3
27.867,8.13481,41.5798,-0.751755,-4.17592,87.4666,108.833,12.8367,-7.08792,0.0446282,25,1974,3
34.6814,4.95905,49.5489,-0.216219,-2.54594,105.701,131.16,12.0327,-3.02718,0.0446282,25,1975,3
54.6538,2.38991,55.6179,-0.00604522,-1.33009,123.823,154.746,24.0637,-0.338228,0.0218193,25,1976,3
58.8,0.79779,59.712,-0.0522838,-0.444821,133.062,166.259,25.6558,-0.105037,0.0218193,25,1977,3
43.9759,2.35342,57.8261,0.032471,-1.30787,115.891,148.037,12.4942,-0.631831,0.0223141,25,1978,3
48.0165,0.793272,61.8016,-0.138171,-0.443787,124.88,159.24,13.8722,-0.353987,0.0223141,25,1979,3
51.0892,2.43369,53.2361,-0.00604522,-1.24818,127.388,154.746,24.0637,-0.338228,0.0218193,25,1980,3
54.9739,0.813083,57.1555,-0.0522838,-0.416209,136.888,166.259,25.6558,-0.105037,0.0218193,25,1981,3
40.2696,2.39495,55.3497,0.032471,-1.23018,119.597,148.037,12.4942,-0.631831,0.0223141,25,1982,3
44.0582,0.809714,59.1567,-0.138171,-0.413027,128.838,159.24,13.8722,-0.353987,0.0223141,25,1983,3
-27.0658,5.1471,-49.2203,-2.4416,-2.86023,-88.2979,5.09622,-7.24401,-115.657,0.0922591,25,1984,3
-7.27468,11.51,-13.9924,-5.81057,-6.39677,-24.6811,10.9194,-11.0503,-37.6354,0.0922591,25,1985,3
-23.6696,3.99787,-49.6976,-2.38451,-2.2213,-85.496,6.59699,-5.02629,-113.121,0.0932817,25,1986,3
-5.73762,8.63321,-14.5704,-7.54231,-4.79633,-23.8633,8.50696,-9.22007,-36.4301,0.0932817,25,1987,3
-23.9245,5.23777,-47.1213,-2.4416,-2.6906,-91.4392,5.09622,-7.24401,-115.657,0.0922591,25,1988,3
-6.38121,11.7133,-13.3954,-5.81057,-6.01635,-25.5746,10.9194,-11.0503,-37.6354,0.0922591,25,1989,3
-20.4982,4.06804,-47.5785,-2.38451,-2.09002,-88.6674,6.59699,-5.02629,-113.121,0.0932817,25,1990,3
-4.80739,8.78436,-13.9488,-7.54231,-4.51355,-24.7935,8.50696,-9.22007,-36.4301,0.0932817,25,1991,3
7.88659,13.7914,12.1887,-8.80299,-7.66548,23.0528,29.8303,12.7352,-20.429,0.0461296,25,1992,3
16.5818,13.8989,30.4568,-8.82122,-7.72813,54.4769,71.4186,11.9179,-21.0991,0.0461296,25,1993,3
8.94281,10.233,10.832,-14.6672,-5.68218,22.4206,28.4479,8.89482,-20.6464,0.0466408,25,1994,3
17.4913,11.9159,27.9392,-21.789,-6.60516,52.2608,67.8596,8.50862,-28.405,0.0466408,25,1995,3
7.11077,14.0357,11.6703,-8.80299,-7.2084,23.8286,29.8303,12.7352,-20.429,0.0461296,25,1996,3
14.6418,14.1475,29.1606,-8.82122,-7.26297,56.4169,71.4186,11.9179,-21.0991,0.0461296,25,1997,3
8.25317,10.4097,10.3712,-14.6672,-5.35158,23.1103,28.4479,8.89482,-20.6464,0.0466408,25,1998,3
15.7165,12.1121,26.7533,-21.789,-6.23806,54.0356,67.8596,8.50862,-28.405,0.0466408,25,1999,3
22.3559,11.9073,44.8344,-6.07199,-6.62659,78.1377,103.091,9.46139,-18.1307,0.0230648,25,2000,3
27.2851,7.85933,54.2513,-2.59873,-4.38271,94.7792,124.984,6.58933,-12.1073,0.0230648,25,2001,3
21.242,14.9036,41.7323,-27.7074,-8.244,73.1864,96.6849,7.30294,-37.2668,0.0233204,25,2002,3
20.5119,18.3697,52.4805,-29.4679,-10.1354,85.8341,116.044,5.96275,-45.1288,0.0233204,25,2003,3
19.4986,12.1252,42.9252,-6.07199,-6.21903,80.9949,103.091,9.46139,-18.1307,0.0230648,25,2004,3
23.8249,8.0105,51.9393,-2.59873,-4.09989,98.2394,124.984,6.58933,-12.1073,0.0230648,25,2005,3
18.5978,15.1346,39.9654,-27.7074,-7.81176,75.8307,96.6849,7.30294,-37.2668,0.0233204,25,2006,3
17.1862,18.6329,50.2584,-29.4679,-9.64296,89.1598,116.044,5.96275,-45.1288,0.0233204,25,2007,3
33.8605,3.42834,60.1492,-0.676695,-1.92481,108.68,142.169,5.59575,-5.90138,0.0115324,25,2008,3
38.4752,1.8006,63.7317,-1.61754,-1.01473,117.758,153.284,8.77274,-7.44193,0.0115324,25,2009,3
15.9258,20.0651,62.6923,-26.5077,-11.0356,93.946,131.149,6.07437,-53.8596,0.0116602,25,2010,3
10.9429,15.305,70.8995,-20.0946,-8.34663,99.1153,142.955,6.59839,-59.5896,0.0116602,25,2011,3
30.0157,3.5051,57.5801,-0.676695,-1.7812,112.525,142.169,5.59575,-5.90138,0.0115324,25,2012,3
34.406,1.84408,61.0127,-1.61754,-0.933393,121.827,153.284,8.77274,-7.44193,0.0115324,25,2013,3
11.9442,20.3234,60.032,-26.5077,-10.5524,97.9275,131.149,6.07437,-53.8596,0.0116602,25,2014,3
6.3976,15.443,67.8624,-20.0946,-8.08853,103.661,142.955,6.59839,-59.5896,0.0116602,25,2015,3
-250.917,0.124708,-0.0166157,-1.6153,-0.0590497,-250.945,-1.61518,-250.909,-250.952,0.00167713,25,2016,3
-68.246,0.26579,-0.00454228,-1.10911,-0.125778,-68.2534,-0.183942,-68.2445,-69.1802,0.00167713,25,2017,3
-250.797,0.194974,-0.0399584,-1.61512,-0.0922596,-250.863,-1.61482,-250.779,-250.882,0.00266631,25,2018,3
-68.2132,0.415249,-0.0109408,-1.10918,-0.196456,-68.2312,-0.170956,-68.2096,-69.173,0.00266631,25,2019,3
-250.916,0.126607,-0.0156897,-1.6153,-0.0548525,-250.946,-1.61517,-250.909,-250.952,0.00167713,25,2020,3
-68.2457,0.269797,-0.00428993,-1.10911,-0.116928,-68.2537,-0.183943,-68.2445,-69.1802,0.00167713,25,2021,3
-250.795,0.197922,-0.0377359,-1.61512,-0.0857639,-250.865,-1.61482,-250.779,-250.882,0.00266631,25,2022,3
-68.2125,0.421499,-0.010333,-1.10918,-0.182674,-68.2318,-0.170956,-68.2096,-69.173,0.00266631,25,2023,3
68.6197,0.270759,0.00455336,-0.607236,-0.128128,68.6272,68.6294,68.6192,-0.608878,0.000838566,25,2024,3
159.9,0.220241,0.0106226,-0.305328,-0.104235,159.918,159.923,159.896,-0.305738,0.000838566,25,2025,3
68.5869,0.423279,0.0109669,-0.60706,-0.200247,68.6049,68.6101,68.5856,-0.611001,0.00133315,25,2026,3
159.824,0.34415,0.0255331,-0.305221,-0.162824,159.866,159.878,159.813,-0.306201,0.00133315,25,2027,3
68.6195,0.274841,0.00430002,-0.607235,-0.119111,68.6275,68.6294,68.6192,-0.608877,0.000838566,25,2028,3
159.9,0.223568,0.0100314,-0.305329,-0.0968862,159.919,159.923,159.896,-0.305739,0.000838566,25,2029,3
68.5862,0.429643,0.0103576,-0.60706,-0.186212,68.6056,68.6101,68.5856,-0.611001,0.00133315,25,2030,3
159.822,0.349334,0.0241142,-0.30522,-0.151394,159.867,159.878,159.813,-0.306201,0.00133315,25,2031,3
228.417,0.15713,0.0151786,-0.128623,-0.0743843,228.442,228.449,228.41,-0.128763,0.000419283,25,2032,3
274.138,0.10162,0.0181731,-0.0495691,-0.0481289,274.168,274.177,274.13,-0.0496204,0.000419283,25,2033,3
228.308,0.245481,0.0363967,-0.128872,-0.116152,228.368,228.385,228.291,-0.129207,0.000666576,25,2034,3
274.007,0.15891,0.0436165,-0.0502438,-0.0752015,274.079,274.1,273.987,-0.0503645,0.000666576,25,2035,3
228.416,0.159513,0.0143334,-0.128623,-0.0691171,228.443,228.449,228.41,-0.128764,0.000419283,25,2036,3
274.137,0.103172,0.0171606,-0.049571,-0.0446945,274.169,274.177,274.13,-0.0496223,0.000419283,25,2037,3
228.305,0.249187,0.0343741,-0.128872,-0.107984,228.37,228.385,228.291,-0.129207,0.000666576,25,2038,3
274.005,0.161318,0.0411911,-0.0502437,-0.0698965,274.082,274.1,273.987,-0.0503645,0.000666576,25,2039,3
308.455,0.0537945,0.0203648,-0.0128831,-0.025504,308.488,308.498,308.445,-0.0128969,0.000209641,25,2040,3
331.348,0.0185609,0.0217841,-0.00186489,-0.00884274,331.384,331.394,331.338,-0.00186798,0.000209641,25,2041,3
308.307,0.0843345,0.0491304,-0.013774,-0.0399219,308.388,308.411,308.284,-0.0138049,0.000333288,25,2042,3
331.19,0.0288741,0.0526383,-0.00213332,-0.0136854,331.276,331.301,331.165,-0.00213864,0.000333288,25,2043,3
308.454,0.0546333,0.0192317,-0.0128778,-0.0236563,308.49,308.498,308.445,-0.0128915,0.000209641,25,2044,3
331.347,0.0188752,0.0205657,-0.00186569,-0.0081604,331.385,331.394,331.338,-0.00186879,0.000209641,25,2045,3
308.304,0.0856214,0.0463975,-0.0137744,-0.0370902,308.391,308.411,308.284,-0.0138053,0.000333288,25,2046,3
331.186,0.0293263,0.0497012,-0.00213514,-0.0126891,331.279,331.301,331.165,-0.00214046,0.000333288,25,2047,3
-250.494,0.305209,-0.0990671,-1.61581,-0.144392,-250.657,-1.61507,-250.448,-250.704,0.00830233,25,2048,3
-68.1302,0.651883,-0.0271375,-1.10928,-0.308361,-68.1748,-0.140948,-68.121,-69.1523,0.00830233,25,2049,3
-249.926,0.446472,-0.20961,-1.61445,-0.211372,-250.27,-1.61289,-249.828,-250.369,0.0122607,25,2050,3
-67.9753,0.95235,-0.0571217,-1.10793,-0.450689,-68.0691,-0.0848245,-67.9562,-69.1113,0.0122607,25,2051,3
-250.488,0.309798,-0.0935282,-1.6158,-0.134264,-250.663,-1.61507,-250.448,-250.704,0.00830233,25,2052,3
-68.1285,0.661654,-0.0256273,-1.10928,-0.286795,-68.1765,-0.140948,-68.121,-69.1523,0.00830233,25,2053,3
-249.913,0.453298,-0.197902,-1.61445,-0.196308,-250.283,-1.61289,-249.828,-250.369,0.0122607,25,2054,3
-67.9717,0.966773,-0.0539449,-1.10793,-0.418855,-68.0727,-0.0848245,-67.9562,-69.1113,0.0122607,25,2055,3
68.5034,0.663774,0.0272816,-0.60705,-0.313996,68.5482,68.5611,68.5003,-0.616817,0.00415116,25,2056,3
159.63,0.539573,0.0633628,-0.304829,-0.255244,159.734,159.764,159.603,-0.30726,0.00415116,25,2057,3
68.3482,0.969897,0.0572522,-0.608432,-0.458982,68.4422,68.4693,68.3418,-0.629114,0.00613036,25,2058,3
159.268,0.789525,0.133621,-0.306771,-0.373656,159.487,159.55,159.21,-0.311931,0.00613036,25,2059,3
68.5017,0.673731,0.0257618,-0.60705,-0.29202,68.5499,68.5611,68.5003,-0.616817,0.00415116,25,2060,3
159.626,0.547668,0.0598256,-0.304829,-0.237379,159.738,159.764,159.603,-0.30726,0.00415116,25,2061,3
68.3446,0.984579,0.0540637,-0.608432,-0.426579,68.4459,68.4693,68.3418,-0.629114,0.00613036,25,2062,3
159.259,0.801499,0.126174,-0.306771,-0.347228,159.496,159.55,159.21,-0.311931,0.00613036,25,2063,3
228.032,0.384571,0.0902837,-0.128335,-0.181926,228.18,228.223,227.99,-0.129164,0.00207558,25,2064,3
273.677,0.248912,0.108127,-0.0499424,-0.117749,273.854,273.905,273.626,-0.0502405,0.00207558,25,2065,3
227.513,0.563849,0.191132,-0.13139,-0.266885,227.826,227.917,227.424,-0.133158,0.00306518,25,2066,3
273.053,0.365258,0.229533,-0.052608,-0.172922,273.43,273.539,272.945,-0.053245,0.00306518,25,2067,3
228.026,0.390344,0.0852417,-0.128335,-0.169183,228.186,228.223,227.99,-0.129164,0.00207558,25,2068,3
273.67,0.252647,0.102088,-0.0499424,-0.109505,273.861,273.905,273.626,-0.0502405,0.00207558,25,2069,3
227.5,0.572427,0.180482,-0.13139,-0.247955,227.839,227.917,227.424,-0.133158,0.00306518,25,2070,3
273.039,0.370841,0.216736,-0.052608,-0.1606,273.445,273.539,272.945,-0.053245,0.00306518,25,2071,3
307.935,0.13218,0.121596,-0.0136446,-0.0625238,308.135,308.192,307.878,-0.0137203,0.00103779,25,2072,3
330.791,0.0452174,0.13026,-0.000887275,-0.0213912,331.005,331.067,330.729,-0.000899239,0.00103779,25,2073,3
307.236,0.191831,0.257948,-0.0138718,-0.09087,307.66,307.782,307.114,-0.0140302,0.00153259,25,2074,3
330.05,0.0616333,0.274419,0.00251103,-0.0293013,330.5,330.63,329.92,0.00248759,0.00153259,25,2075,3
307.927,0.13416,0.114804,-0.0136445,-0.0581534,308.142,308.192,307.878,-0.0137202,0.00103779,25,2076,3
330.783,0.0458965,0.122949,-0.000887173,-0.0198927,331.013,331.067,330.729,-0.000899137,0.00103779,25,2077,3
307.22,0.194803,0.243538,-0.0138718,-0.0843113,307.676,307.782,307.114,-0.0140302,0.00153259,25,2078,3
330.032,0.0626676,0.258976,0.00251104,-0.0270187,330.517,330.63,329.92,0.00248759,0.00153259,25,2079,3
-248.582,0.66753,-0.471216,-1.61811,-0.31598,-249.356,-1.61457,-248.363,-249.579,0.0363966,25,2080,3
-67.6063,1.42324,-0.129311,-1.10822,-0.673445,-67.8186,0.0252236,-67.5627,-68.9956,0.0363966,25,2081,3
-246.137,0.933512,-0.948445,-1.63049,-0.442802,-247.693,-1.62348,-245.695,-248.142,0.0522301,25,2082,3
-66.9211,2.04405,-0.263317,-1.10017,-0.968152,-67.3535,0.21191,-66.8331,-68.7536,0.0522301,25,2083,3
-248.552,0.677699,-0.444783,-1.61811,-0.293536,-249.386,-1.61457,-248.363,-249.579,0.0363966,25,2084,3
-67.5981,1.44473,-0.122118,-1.10822,-0.626015,-67.8268,0.0252236,-67.5627,-68.9956,0.0363966,25,2085,3
-246.076,0.948423,-0.895099,-1.63049,-0.409892,-247.754,-1.62348,-245.695,-248.142,0.0522301,25,2086,3
-66.9045,2.07563,-0.24872,-1.10017,-0.898448,-67.3702,0.21191,-66.8331,-68.7536,0.0522301,25,2087,3
67.9785,1.44778,0.129565,-0.60839,-0.685097,68.1912,68.2525,67.9639,-0.655077,0.0181983,25,2088,3
158.41,1.17903,0.300601,-0.306996,-0.55792,158.904,159.046,158.28,-0.318676,0.0181983,25,2089,3
67.2967,2.07609,0.262716,-0.612844,-0.983352,67.7279,67.8523,67.2683,-0.708879,0.0261151,25,2090,3
156.824,1.69014,0.610899,-0.314018,-0.80068,157.826,158.115,156.559,-0.338091,0.0261151,25,2091,3
67.9703,1.46967,0.122338,-0.60839,-0.636782,68.1994,68.2525,67.9639,-0.655077,0.0181983,25,2092,3
158.391,1.19686,0.283792,-0.306996,-0.51858,158.923,159.046,158.28,-0.318676,0.0181983,25,2093,3
67.28,2.10818,0.248079,-0.612844,-0.912516,67.7446,67.8523,67.2683,-0.708879,0.0261151,25,2094,3
156.785,1.71637,0.576814,-0.314018,-0.742788,157.865,158.115,156.559,-0.338091,0.0261151,25,2095,3
226.288,0.844075,0.42937,-0.133784,-0.399424,226.992,227.196,226.089,-0.13781,0.00909915,25,2096,3
271.582,0.548618,0.515698,-0.0542558,-0.259627,272.428,272.673,271.34,-0.0557191,0.00909915,25,2097,3
224.027,1.20089,0.872815,-0.132028,-0.569144,225.46,225.873,223.622,-0.140226,0.0130575,25,2098,3
268.898,0.760149,1.04143,-0.0379223,-0.36062,270.607,271.1,268.408,-0.0407428,0.0130575,25,2099,3
226.26,0.856841,0.405369,-0.133784,-0.371251,227.02,227.196,226.089,-0.13781,0.00909915,25,2100,3
271.549,0.556927,0.48684,-0.0542558,-0.241289,272.461,272.673,271.34,-0.0557191,0.00909915,25,2101,3
223.972,1.21971,0.824047,-0.132028,-0.527616,225.515,225.873,223.622,-0.140226,0.0130575,25,2102,3
268.832,0.772329,0.983009,-0.0379223,-0.333737,270.674,271.1,268.408,-0.0407428,0.0130575,25,2103,3
305.583,0.290109,0.579727,-0.0114495,-0.137339,306.534,306.808,305.309,-0.0118172,0.00454957,25,2104,3
328.277,0.0941151,0.619591,0.0132138,-0.0446625,329.293,329.587,327.984,0.013163,0.00454957,25,2105,3
302.606,0.374087,1.15983,0.0191474,-0.178027,304.508,305.057,302.057,0.0185404,0.00652877,25,2106,3
325.131,0.0890882,1.22753,0.0535293,-0.0433081,327.143,327.724,324.55,0.0534256,0.00652877,25,2107,3
305.546,0.294539,0.547192,-0.0114495,-0.127562,306.571,306.808,305.309,-0.0118172,0.00454957,25,2108,3
328.237,0.0956335,0.584592,0.0132138,-0.0413115,329.333,329.587,327.984,0.013163,0.00454957,25,2109,3
302.531,0.380501,1.09439,0.0191474,-0.163872,304.583,305.057,302.057,0.0185404,0.00652877,25,2110,3
325.051,0.0913007,1.1577,0.0535294,-0.038425,327.223,327.724,324.55,0.0534256,0.00652877,25,2111,3
-240.486,1.38345,-2.04243,-1.65033,-0.655654,-243.836,-1.63431,-239.535,-244.803,0.151961,25,2112,3
-65.3676,2.97639,-0.565099,-1.09101,-1.40904,-66.2954,0.536719,-65.1841,-68.1066,0.151961,25,2113,3
-230.361,1.81438,-4.03107,-1.83141,-0.864383,-236.97,-1.8016,-228.482,-238.879,0.215295,25,2114,3
-62.4948,4.33011,-1.1438,-1.15179,-2.05407,-64.3718,1.01366,-62.1477,-66.8844,0.215295,25,2115,3
-240.355,1.40512,-1.92722,-1.65033,-0.607829,-243.968,-1.63431,-239.535,-244.803,0.151961,25,2116,3
-65.3317,3.02185,-0.533688,-1.09101,-1.30872,-66.3312,0.536719,-65.1841,-68.1066,0.151961,25,2117,3
-230.1,1.84618,-3.80219,-1.83141,-0.794194,-237.231,-1.8016,-228.482,-238.879,0.215295,25,2118,3
-62.4218,4.39938,-1.0798,-1.15179,-1.90121,-64.4448,1.01366,-62.1477,-66.8844,0.215295,25,2119,3
65.7429,3.02683,0.563546,-0.621816,-1.43296,66.6679,66.9347,65.6886,-0.834277,0.0759804,25,2120,3
153.205,2.46949,1.31171,-0.328569,-1.16922,155.357,155.978,152.638,-0.382616,0.0759804,25,2121,3
62.8813,4.4257,1.13812,-0.554138,-2.09927,64.7486,65.2875,62.8189,-1.03072,0.107648,25,2122,3
146.576,3.51769,2.63752,-0.179819,-1.6698,150.903,152.151,145.443,-0.295239,0.107648,25,2123,3
65.707,3.07308,0.53208,-0.621816,-1.33088,66.7038,66.9347,65.6886,-0.834277,0.0759804,25,2124,3
153.121,2.50732,1.23834,-0.328569,-1.08574,155.441,155.978,152.638,-0.382616,0.0759804,25,2125,3
62.8084,4.49638,1.07422,-0.554138,-1.94328,64.8215,65.2875,62.8189,-1.03072,0.107648,25,2126,3
146.407,3.5748,2.48915,-0.179819,-1.54376,151.072,152.151,145.443,-0.295239,0.107648,25,2127,3
218.87,1.76474,1.87085,-0.140678,-0.835782,221.94,222.825,218.003,-0.159462,0.0379902,25,2128,3
262.724,1.13134,2.23607,-0.0259876,-0.536192,266.392,267.45,261.672,-0.0326347,0.0379902,25,2129,3
209.519,2.38997,3.7275,0.0611439,-1.13645,215.632,217.397,207.79,0.0256068,0.0538238,25,2130,3
251.666,1.41209,4.4109,0.19515,-0.674032,258.897,260.986,249.587,0.184598,0.0538238,25,2131,3
218.75,1.79195,1.76595,-0.140678,-0.775735,222.059,222.825,218.003,-0.159462,0.0379902,25,2132,3
262.58,1.14907,2.11014,-0.0259876,-0.497049,266.536,267.45,261.672,-0.0326347,0.0379902,25,2133,3
209.279,2.43024,3.51706,0.0611439,-1.04756,215.872,217.397,207.79,0.0256068,0.0538238,25,2134,3
251.38,1.43782,4.16066,0.19515,-0.617243,259.183,260.986,249.587,0.184598,0.0538238,25,2135,3
295.67,0.57288,2.50241,0.0572082,-0.272113,299.774,300.959,294.487,0.0557108,0.0189951,25,2136,3
317.685,0.151461,2.67077,0.1189,-0.0728659,322.063,323.328,316.421,0.118675,0.0189951,25,2137,3
283.381,0.584018,4.89861,0.280866,-0.282495,291.41,293.73,281.063,0.278459,0.0269119,25,2138,3
304.609,-0.01103,5.202,0.332781,-0.00112432,313.133,315.597,302.148,0.330161,0.0269119,25,2139,3
295.509,0.582311,2.3608,0.0572082,-0.251297,299.935,300.959,294.487,0.0557108,0.0189951,25,2140,3
317.512,0.154648,2.51884,0.1189,-0.0658303,322.237,323.328,316.421,0.118675,0.0189951,25,2141,3
283.063,0.597461,4.6194,0.280866,-0.252826,291.728,293.73,281.063,0.278459,0.0269119,25,2142,3
304.27,-0.00642727,4.90426,0.332781,0.0090341,313.472,315.597,302.148,0.330161,0.0269119,25,2143,3
-207.044,2.85017,-8.46063,-1.84793,-1.34812,-220.921,-1.7565,-203.13,-224.927,0.620593,25,2144,3
-56.2163,6.05041,-2.32891,-1.14883,-2.86196,-60.0373,1.85108,-55.603,-63.6504,0.620593,25,2145,3
-165.573,4.08403,-16.4815,-1.57028,-1.92608,-192.626,-1.32493,-158.019,-200.425,0.873929,25,2146,3
-45.0002,8.35272,-4.49125,-1.09957,-3.94525,-52.3722,3.31703,-44.0323,-57.7567,0.873929,25,2147,3
-206.5,2.89282,-7.98332,-1.84793,-1.254,-221.465,-1.7565,-203.13,-224.927,0.620593,25,2148,3
-56.0672,6.14105,-2.19813,-1.14883,-2.66192,-60.1864,1.85108,-55.603,-63.6504,0.620593,25,2149,3
-164.524,4.14089,-15.5622,-1.57028,-1.80058,-193.674,-1.32493,-158.019,-200.425,0.873929,25,2150,3
-44.7145,8.47352,-4.24072,-1.09957,-3.67862,-52.6579,3.31703,-44.0323,-57.7567,0.873929,25,2151,3
56.5588,6.1611,2.33307,-0.561027,-2.91429,60.3864,61.5015,56.577,-1.69426,0.310296,25,2152,3
131.822,5.01811,5.42797,-0.190504,-2.37367,140.726,143.296,129.557,-0.495453,0.310296,25,2153,3
45.2842,8.5005,4.50783,-0.617072,-4.01516,52.6835,54.8893,45.5802,-3.11891,0.436965,25,2154,3
105.511,6.97469,10.5062,-0.329553,-3.29345,122.756,127.728,101.286,-1.07573,0.436965,25,2155,3
56.4093,6.25337,2.20195,-0.561027,-2.71063,60.5359,61.5015,56.577,-1.69426,0.310296,25,2156,3
131.474,5.09328,5.12267,-0.190504,-2.20775,141.075,143.296,129.557,-0.495453,0.310296,25,2157,3
44.9975,8.62353,4.25636,-0.617072,-3.74364,52.9702,54.8893,45.5802,-3.11891,0.436965,25,2158,3
104.843,7.07488,9.92016,-0.329553,-3.07233,123.425,127.728,101.286,-1.07573,0.436965,25,2159,3
188.389,3.58735,7.72955,0.0540188,-1.69691,201.068,204.727,184.838,-0.054076,0.155148,25,2160,3
226.217,2.32351,9.24213,0.199484,-1.09905,241.375,245.751,221.881,0.159832,0.155148,25,2161,3
150.735,5.0658,15.0045,-0.167575,-2.39051,175.363,182.463,143.916,-0.448808,0.218482,25,2162,3
180.933,3.38087,18.0001,-0.100228,-1.59352,210.48,218.997,172.53,-0.214318,0.218482,25,2163,3
187.893,3.64111,7.29422,0.0540188,-1.57827,201.565,204.727,184.838,-0.054076,0.155148,25,2164,3
225.622,2.35831,8.7208,0.199484,-1.02225,241.97,245.751,221.881,0.159832,0.155148,25,2165,3
149.78,5.1374,14.1676,-0.167575,-2.2325,176.318,182.463,143.916,-0.448808,0.218482,25,2166,3
179.789,3.42723,16.9961,-0.100228,-1.49119,211.624,218.997,172.53,-0.214318,0.218482,25,2167,3
254.651,1.22609,10.3651,0.298733,-0.579906,271.65,276.558,249.754,0.288463,0.0775741,25,2168,3
273.656,0.411964,11.1043,0.363304,-0.194777,291.865,297.123,268.4,0.361281,0.0775741,25,2169,3
203.617,1.91823,20.2433,-0.0712697,-0.901743,236.846,246.424,194.075,-0.107996,0.109241,25,2170,3
218.768,0.833167,21.7345,-0.0626074,-0.388658,254.444,264.729,208.494,-0.0720732,0.109241,25,2171,3
253.984,1.24441,9.77967,0.298733,-0.539465,272.318,276.558,249.754,0.288463,0.0775741,25,2172,3
272.94,0.418068,10.4764,0.363304,-0.181305,292.581,297.123,268.4,0.361281,0.0775741,25,2173,3
202.33,1.94274,19.1142,-0.0712697,-0.847639,238.133,246.424,194.075,-0.107996,0.109241,25,2174,3
217.386,0.841554,20.5222,-0.0626074,-0.370148,255.827,264.729,208.494,-0.0720732,0.109241,25,2175,3
-126.733,4.6922,-24.1247,-1.41578,-2.22455,-166.337,-1.02598,-115.708,-177.751,0.531966,25,2176,3
-34.5137,10.3824,-6.53993,-1.05601,-4.91539,-45.2491,4.93065,-33.4871,-52.2624,0.531966,25,2177,3
-95.5685,5.40771,-30.2138,-1.57626,-2.55648,-145.161,-0.853127,-81.9947,-159.458,0.5953,25,2178,3
-25.9698,11.4448,-8.22082,-1.1217,-5.41153,-39.4627,6.4507,-25.3872,-47.6177,0.5953,25,2179,3
-125.201,4.76629,-22.7817,-1.41578,-2.06104,-167.868,-1.02598,-115.708,-177.751,0.531966,25,2180,3
-34.098,10.5412,-6.17542,-1.05601,-4.56496,-45.6647,4.93065,-33.4871,-52.2624,0.531966,25,2181,3
-93.6459,5.48762,-28.5277,-1.57626,-2.38013,-147.083,-0.853127,-81.9947,-159.458,0.5953,25,2182,3
-25.4464,11.6147,-7.76173,-1.1217,-5.03661,-39.9862,6.4507,-25.3872,-47.6177,0.5953,25,2183,3
34.7431,10.5932,6.56899,-0.667099,-5.01509,45.5264,48.6346,35.8873,-4.91951,0.265983,25,2184,3
80.9042,8.53967,15.3245,-0.440408,-4.04394,106.06,113.311,74.9484,-1.73549,0.265983,25,2185,3
26.1772,11.6574,8.25288,-0.600064,-5.51208,39.7229,43.6282,28.485,-6.81318,0.29765,25,2186,3
60.9629,9.50044,19.2393,-0.295367,-4.4919,92.5409,101.645,54.0819,-2.51844,0.29765,25,2187,3
34.3257,10.7551,6.20294,-0.667099,-4.6577,45.9438,48.6346,35.8873,-4.91951,0.265983,25,2188,3
79.9306,8.67099,14.4707,-0.440408,-3.75411,107.034,113.311,74.9484,-1.73549,0.265983,25,2189,3
25.6518,11.8304,7.79209,-0.600064,-5.13012,40.2483,43.6282,28.485,-6.81318,0.29765,25,2190,3
59.7381,9.64127,18.1652,-0.295367,-4.1811,93.7657,101.645,54.0819,-2.51844,0.29765,25,2191,3
115.501,5.98839,21.9187,-0.31911,-2.83744,151.483,161.854,105.572,-0.761153,0.132991,25,2192,3
138.529,3.76761,26.3427,-0.275319,-1.78732,181.774,194.238,126.218,-0.428484,0.132991,25,2193,3
87.0872,6.80356,27.484,-0.13243,-3.21641,132.198,145.203,74.8942,-0.944825,0.148825,25,2194,3
104.515,4.4268,32.9881,-0.0854123,-2.09248,158.661,174.271,89.2078,-0.387566,0.148825,25,2195,3
114.109,6.08172,20.698,-0.31911,-2.63145,152.875,161.854,105.572,-0.761153,0.132991,25,2196,3
136.857,3.82794,24.8763,-0.275319,-1.65418,183.447,194.238,126.218,-0.428484,0.132991,25,2197,3
85.3378,6.90412,25.9498,-0.13243,-2.99446,133.947,145.203,74.8942,-0.944825,0.148825,25,2198,3
102.416,4.492,31.1471,-0.0854123,-1.94858,160.76,174.271,89.2078,-0.387566,0.148825,25,2199,3
155.791,1.87371,29.6725,-0.262915,-0.891897,204.504,218.543,141.787,-0.298264,0.0664957,25,2200,3
167.295,0.498452,31.8991,-0.266031,-0.241792,219.664,234.756,152.209,-0.272065,0.0664957,25,2201,3
117.592,2.36832,37.121,-0.0867472,-1.11921,178.523,196.088,100.107,-0.166436,0.0744125,25,2202,3
126.31,0.843623,39.88,-0.112946,-0.398514,191.77,210.64,107.453,-0.12588,0.0744125,25,2203,3
153.908,1.90599,28.0212,-0.262915,-0.820663,206.387,218.543,141.787,-0.298264,0.0664957,25,2204,3
165.271,0.510441,30.1242,-0.266031,-0.215331,221.688,234.756,152.209,-0.272065,0.0664957,25,2205,3
115.23,2.40301,35.0498,-0.0867472,-1.04265,180.884,196.088,100.107,-0.166436,0.0744125,25,2206,3
123.773,0.855858,37.6552,-0.112946,-0.371511,194.307,210.64,107.453,-0.12588,0.0744125,25,2207,3
-70.2194,5.75651,-35.1573,-1.54698,-2.72622,-127.926,-0.359558,-54.7708,-144.562,0.3214,25,2208,3
-19.0865,12.4444,-9.55684,-1.0902,-5.88909,-34.7722,8.43275,-19.497,-43.8846,0.3214,25,2209,3
-51.9049,6.1898,-38.7422,-1.57184,-2.9274,-115.494,0.482249,-35.6261,-133.826,0.337234,25,2210,3
-14.1891,13.0537,-10.4899,-0.96696,-6.17355,-31.4063,10.3562,-15.778,-41.1406,0.337234,25,2211,3
-67.9825,5.84521,-33.1956,-1.54698,-2.53045,-130.163,-0.359558,-54.7708,-144.562,0.3214,25,2212,3
-18.478,12.6328,-9.02319,-1.0902,-5.47325,-35.3807,8.43275,-19.497,-43.8846,0.3214,25,2213,3
-49.4385,6.28215,-36.5792,-1.57184,-2.72357,-117.96,0.482249,-35.6261,-133.826,0.337234,25,2214,3
-13.5212,13.2484,-9.90417,-0.96696,-5.7438,-32.0742,10.3562,-15.778,-41.1406,0.337234,25,2215,3
19.2696,12.6675,9.59713,-0.602168,-5.99465,35.0217,39.5631,23.2742,-9.14808,0.1607,25,2216,3
44.8578,10.2817,22.3715,-0.324174,-4.86609,81.577,92.1631,37.8487,-3.9012,0.1607,25,2217,3
14.1296,13.1643,10.6384,-0.440971,-6.22595,31.5905,36.6307,19.778,-11.1295,0.168617,25,2218,3
33.1492,10.6364,24.6832,-0.184687,-5.03025,73.6622,85.3423,26.8294,-5.54508,0.168617,25,2219,3
18.6587,12.8593,9.06133,-0.602168,-5.57138,35.6326,39.5631,23.2742,-9.14808,0.1607,25,2220,3
43.4337,10.4377,21.1226,-0.324174,-4.52172,83.0011,92.1631,37.8487,-3.9012,0.1607,25,2221,3
13.4523,13.3608,10.0443,-0.440971,-5.79241,32.2679,36.6307,19.778,-11.1295,0.168617,25,2222,3
31.5777,10.795,23.305,-0.184687,-4.6802,75.2337,85.3423,26.8294,-5.54508,0.168617,25,2223,3
64.0708,7.2951,31.9626,-0.177743,-3.45354,116.533,131.657,50.2832,-1.51472,0.0803501,25,2224,3
76.8522,4.66114,38.3796,-0.12683,-2.20802,139.848,158.009,59.1712,-0.606675,0.0803501,25,2225,3
47.5016,7.55933,35.2043,-0.0594784,-3.57492,105.283,121.942,33.0485,-2.26519,0.0843085,25,2226,3
57.1052,4.88676,42.2202,-0.0218075,-2.31103,126.402,146.381,37.9567,-0.852026,0.0843085,25,2227,3
62.0364,7.4065,30.1785,-0.177743,-3.20766,118.567,131.657,50.2832,-1.51472,0.0803501,25,2228,3
74.4101,4.73338,36.2379,-0.12683,-2.04859,142.29,158.009,59.1712,-0.606675,0.0803501,25,2229,3
45.2603,7.67198,33.2387,-0.0594784,-3.3263,107.524,121.942,33.0485,-2.26519,0.0843085,25,2230,3
54.4172,4.95959,39.8629,-0.0218075,-2.15029,129.09,146.381,37.9567,-0.852026,0.0843085,25,2231,3
86.4084,2.3925,43.2104,-0.114366,-1.1355,157.335,177.781,66.0765,-0.22894,0.040175,25,2232,3
92.7404,0.738022,46.4485,-0.123901,-0.353419,168.983,190.962,70.7779,-0.139739,0.040175,25,2233,3
64.3086,2.58742,47.49,-0.0182073,-1.22371,142.255,164.727,42.0476,-0.229328,0.0421542,25,2234,3
69.0897,0.893165,51.0133,-0.0443346,-0.42299,152.82,176.959,44.9811,-0.075129,0.0421542,25,2235,3
83.6597,2.4312,40.7999,-0.114366,-1.05009,160.083,177.781,66.0765,-0.22894,0.040175,25,2236,3
89.7867,0.752326,43.8581,-0.123901,-0.32185,171.937,190.962,70.7779,-0.139739,0.040175,25,2237,3
61.2853,2.62604,44.8386,-0.0182073,-1.13847,145.279,164.727,42.0476,-0.229328,0.0421542,25,2238,3
65.8423,0.906925,48.1655,-0.0443346,-0.39262,156.067,176.959,44.9811,-0.075129,0.0421542,25,2239,3
-37.4365,6.5262,-41.605,-1.59538,-3.08764,-105.724,1.87701,-21.2214,-125.412,0.174555,25,2240,3
-10.6607,13.6482,-11.1529,-1.12098,-6.45584,-28.9662,12.1169,-13.63,-39.2347,0.174555,25,2241,3
-27.6047,6.30166,-43.5654,-1.96392,-2.98102,-99.1098,3.33661,-12.29,-119.725,0.178513,25,2242,3
-8.04545,13.5538,-11.8506,-2.8317,-6.41088,-27.4964,12.4143,-12.4406,-38.3473,0.178513,25,2243,3
-34.7879,6.62443,-39.2823,-1.59538,-2.87084,-108.373,1.87701,-21.2214,-125.412,0.174555,25,2244,3
-9.95056,13.8526,-10.5302,-1.12098,-6.00463,-29.6763,12.1169,-13.63,-39.2347,0.174555,25,2245,3
-24.8312,6.39622,-41.1331,-1.96392,-2.77231,-101.883,3.33661,-12.29,-119.725,0.178513,25,2246,3
-7.29118,13.7566,-11.1891,-2.8317,-5.96328,-28.2507,12.4143,-12.4406,-38.3473,0.178513,25,2247,3
9.79609,13.6238,11.5313,-0.542244,-6.44455,28.7223,34.1849,17.1995,-13.4082,0.0872773,25,2248,3
23.8837,10.8412,26.5219,-0.178736,-5.12841,67.414,79.9641,18.9896,-7.83476,0.0872773,25,2249,3
6.93834,14.3657,11.8541,-2.82494,-6.79614,26.3922,32.0154,15.2756,-16.7854,0.0892564,25,2250,3
17.0058,11.8999,27.7662,-1.82403,-5.63086,62.5737,75.7153,14.5171,-12.4769,0.0892564,25,2251,3
9.06171,13.828,10.8873,-0.542244,-5.99369,29.4567,34.1849,17.1995,-13.4082,0.0872773,25,2252,3
22.1947,11.0038,25.0407,-0.178736,-4.76943,69.103,79.9641,18.9896,-7.83476,0.0872773,25,2253,3
6.18222,14.5816,11.191,-2.82494,-6.31969,27.1483,32.0154,15.2756,-16.7854,0.0892564,25,2254,3
15.2351,12.0797,26.2133,-1.82403,-5.23413,64.3445,75.7153,14.5171,-12.4769,0.0892564,25,2255,3
34.7627,7.55641,37.6725,-0.0263066,-3.57459,96.5945,114.421,20.4409,-3.531,0.0436386,25,2256,3
42.1388,4.7932,45.0743,-0.00575912,-2.26791,116.12,137.45,22.1539,-1.35048,0.0436386,25,2257,3
25.2166,8.26514,39.5461,-0.751755,-3.91164,90.1171,108.833,12.8367,-7.08792,0.0446282,25,2258,3
31.521,5.03871,47.1239,-0.216219,-2.38441,108.861,131.16,12.0327,-3.02718,0.0446282,25,2259,3
32.3637,7.66981,35.5687,-0.0263066,-3.32432,98.9935,114.421,20.4409,-3.531,0.0436386,25,2260,3
39.269,4.86548,42.5575,-0.00575912,-2.10839,118.99,137.45,22.1539,-1.35048,0.0436386,25,2261,3
22.6947,8.39052,37.3344,-0.751755,-3.63494,92.6389,108.833,12.8367,-7.08792,0.0446282,25,2262,3
28.5177,5.11495,44.4901,-0.216219,-2.21616,111.864,131.16,12.0327,-3.02718,0.0446282,25,2263,3
47.6901,2.47178,50.6279,-0.00604522,-1.17094,130.787,154.746,24.0637,-0.338228,0.0218193,25,2264,3
51.3237,0.825174,54.3546,-0.0522838,-0.39169,140.539,166.259,25.6558,-0.105037,0.0218193,25,2265,3
36.7357,2.43392,52.638,0.032471,-1.15115,123.131,148.037,12.4942,-0.631831,0.0223141,25,2266,3
40.2786,0.820599,56.2566,-0.138171,-0.390955,132.618,159.24,13.8722,-0.353987,0.0223141,25,2267,3
44.4669,2.51012,47.8012,-0.00604522,-1.08633,134.01,154.746,24.0637,-0.338228,0.0218193,25,2268,3
47.864,0.838563,51.3205,-0.0522838,-0.362139,143.998,166.259,25.6558,-0.105037,0.0218193,25,2269,3
33.3844,2.47028,49.699,0.032471,-1.07091,126.483,148.037,12.4942,-0.631831,0.0223141,25,2270,3
36.6994,0.834994,53.1176,-0.138171,-0.359185,136.197,159.24,13.8722,-0.353987,0.0223141,25,2271,3
-20.9032,5.32315,-44.803,-2.4416,-2.51747,-94.4605,5.09622,-7.24401,-115.657,0.0922591,25,2272,3
-5.52277,11.9037,-12.7367,-5.81057,-5.63028,-26.433,10.9194,-11.0503,-37.6354,0.0922591,25,2273,3
-17.4472,4.13459,-45.2374,-2.38451,-1.95507,-91.7184,6.59699,-5.02629,-113.121,0.0932817,25,2274,3
-3.91333,8.92842,-13.2628,-7.54231,-4.22143,-25.6876,8.50696,-9.22007,-36.4301,0.0932817,25,2275,3
-18.0627,5.40253,-42.312,-2.4416,-2.34227,-97.3009,5.09622,-7.24401,-115.657,0.0922591,25,2276,3
-4.71487,12.0817,-12.0282,-5.81057,-5.23738,-27.2409,10.9194,-11.0503,-37.6354,0.0922591,25,2277,3
-14.5795,4.19603,-42.7225,-2.38451,-1.81948,-94.5861,6.59699,-5.02629,-113.121,0.0932817,25,2278,3
-3.07219,9.06075,-12.5251,-7.54231,-3.92936,-26.5287,8.50696,-9.22007,-36.4301,0.0932817,25,2279,3
6.36052,14.2632,11.0946,-8.80299,-6.74707,24.5789,29.8303,12.7352,-20.429,0.0461296,25,2280,3
12.7685,14.3746,27.7231,-8.82122,-6.80255,58.2902,71.4186,11.9179,-21.0991,0.0461296,25,2281,3
7.5866,10.5827,9.85969,-14.6672,-5.00074,23.7768,28.4479,8.89482,-20.6464,0.0466408,25,2282,3
13.9932,12.3224,25.431,-21.789,-5.81169,55.7589,67.8596,8.50862,-28.405,0.0466408,25,2283,3
5.659,14.4771,10.4794,-8.80299,-6.27498,25.2804,29.8303,12.7352,-20.429,0.0461296,25,2284,3
11.0143,14.5922,26.1847,-8.82122,-6.32213,60.0444,71.4186,11.9179,-21.0991,0.0461296,25,2285,3
6.96301,10.7374,9.31281,-14.6672,-4.65929,24.4004,28.4479,8.89482,-20.6464,0.0466408,25,2286,3
12.3884,12.4942,24.0236,-21.789,-5.43254,57.3637,67.8596,8.50862,-28.405,0.0466408,25,2287,3
16.7424,12.3152,40.8103,-6.07199,-5.83363,83.7512,103.091,9.46139,-18.1307,0.0230648,25,2288,3
20.4926,8.12914,49.3823,-2.59873,-3.8593,101.572,124.984,6.58933,-12.1073,0.0230648,25,2289,3
16.0171,15.4109,37.9852,-27.7074,-7.2516,78.4114,96.6849,7.30294,-37.2668,0.0233204,25,2290,3
13.9412,18.9933,47.7684,-29.4679,-8.91224,92.4048,116.044,5.96275,-45.1288,0.0233204,25,2291,3
14.1588,12.5059,38.5446,-6.07199,-5.41269,86.3347,103.091,9.46139,-18.1307,0.0230648,25,2292,3
17.3638,8.26149,46.6384,-2.59873,-3.5672,104.701,124.984,6.58933,-12.1073,0.0230648,25,2293,3
13.6261,15.6131,35.8883,-27.7074,-6.80518,80.8024,96.6849,7.30294,-37.2668,0.0233204,25,2294,3
10.934,19.2237,45.1312,-29.4679,-8.40366,95.412,116.044,5.96275,-45.1288,0.0233204,25,2295,3
26.3296,3.54689,54.7516,-0.676695,-1.69646,116.211,142.169,5.59575,-5.90138,0.0115324,25,2296,3
30.4957,1.86311,58.0122,-1.61754,-0.89479,125.737,153.284,8.77274,-7.44193,0.0115324,25,2297,3
8.0765,20.7439,57.0642,-26.5077,-9.6997,101.795,131.149,6.07437,-53.8596,0.0116602,25,2298,3
2.06583,15.8182,64.5385,-20.0946,-7.32776,107.992,142.955,6.59839,-59.5896,0.0116602,25,2299,3
22.8529,3.61409,51.7027,-0.676695,-1.54814,119.688,142.169,5.59575,-5.90138,0.0115324,25,2300,3
26.8162,1.90117,54.7854,-1.61754,-0.810786,129.417,153.284,8.77274,-7.44193,0.0115324,25,2301,3
4.47626,20.97,53.9068,-26.5077,-9.20063,105.395,131.149,6.07437,-53.8596,0.0116602,25,2302,3
-2.04417,15.9389,60.9341,-20.0946,-7.0612,112.102,142.955,6.59839,-59.5896,0.0116602,25,2303,3
-250.925,0.110807,-0.0205665,-1.6153,-0.0822184,-250.937,-1.61517,-250.909,-250.952,0.00167713,25,2304,3
-68.248,0.236161,-0.00562518,-1.10911,-0.175187,-68.2514,-0.183943,-68.2445,-69.1802,0.00167713,25,2305,3
-250.815,0.173235,-0.0494694,-1.61512,-0.128523,-250.845,-1.61482,-250.779,-250.882,0.00266631,25,2306,3
-68.2181,0.36895,-0.0135447,-1.10918,-0.273692,-68.2263,-0.170956,-68.2096,-69.173,0.00266631,25,2307,3
-250.923,0.113493,-0.0201159,-1.6153,-0.0784757,-250.938,-1.61518,-250.909,-250.952,0.00167713,25,2308,3
-68.2477,0.241822,-0.00550163,-1.10911,-0.167292,-68.2518,-0.183942,-68.2445,-69.1802,0.00167713,25,2309,3
-250.812,0.177386,-0.0483853,-1.61512,-0.122723,-250.848,-1.61482,-250.779,-250.882,0.00266631,25,2310,3
-68.2172,0.377761,-0.0132486,-1.10918,-0.261388,-68.2272,-0.170956,-68.2096,-69.173,0.00266631,25,2311,3
68.6218,0.240573,0.00563718,-0.607235,-0.178464,68.6252,68.6294,68.6192,-0.608877,0.000838566,25,2312,3
159.905,0.19569,0.0131501,-0.305329,-0.145172,159.913,159.923,159.896,-0.305739,0.000838566,25,2313,3
68.5918,0.376086,0.0135774,-0.60706,-0.278976,68.6,68.6101,68.5856,-0.611001,0.00133315,25,2314,3
159.835,0.305778,0.0316108,-0.30522,-0.226835,159.854,159.878,159.813,-0.306201,0.00133315,25,2315,3
68.6214,0.246342,0.00551356,-0.607236,-0.17042,68.6256,68.6294,68.6192,-0.608878,0.000838566,25,2316,3
159.904,0.200391,0.0128621,-0.305328,-0.138617,159.914,159.923,159.896,-0.305738,0.000838566,25,2317,3
68.5909,0.385059,0.0132804,-0.60706,-0.266447,68.6009,68.6101,68.5856,-0.611001,0.00133315,25,2318,3
159.833,0.313085,0.030919,-0.305221,-0.216631,159.857,159.878,159.813,-0.306201,0.00133315,25,2319,3
228.424,0.139614,0.0187907,-0.128623,-0.103584,228.435,228.449,228.41,-0.128764,0.000419283,25,2320,3
274.147,0.0902927,0.0224959,-0.049571,-0.0670025,274.16,274.177,274.13,-0.0496223,0.000419283,25,2321,3
228.324,0.21811,0.0450602,-0.128872,-0.16181,228.351,228.385,228.291,-0.129207,0.000666576,25,2322,3
274.027,0.141191,0.0539982,-0.0502437,-0.104758,274.06,274.1,273.987,-0.0503645,0.000666576,25,2323,3
228.423,0.142984,0.0183784,-0.128623,-0.0988862,228.436,228.449,228.41,-0.128763,0.000419283,25,2324,3
274.145,0.0924907,0.0220032,-0.0495691,-0.0639409,274.162,274.177,274.13,-0.0496204,0.000419283,25,2325,3
228.321,0.223331,0.0440742,-0.128872,-0.154517,228.354,228.385,228.291,-0.129207,0.000666576,25,2326,3
274.023,0.144581,0.0528155,-0.0502438,-0.100019,274.063,274.1,273.987,-0.0503645,0.000666576,25,2327,3
308.464,0.0478036,0.0252217,-0.0128778,-0.0354857,308.479,308.498,308.445,-0.0128915,0.000209641,25,2328,3
331.358,0.0165047,0.0269497,-0.00186569,-0.0122662,331.374,331.394,331.338,-0.00186879,0.000209641,25,2329,3
308.329,0.0749318,0.0608219,-0.0137744,-0.0556052,308.366,308.411,308.284,-0.0138053,0.000333288,25,2330,3
331.213,0.0256522,0.0651657,-0.00213514,-0.0190527,331.253,331.301,331.165,-0.00214046,0.000333288,25,2331,3
308.462,0.0489844,0.0246639,-0.0128831,-0.0338354,308.481,308.498,308.445,-0.0128969,0.000209641,25,2332,3
331.356,0.0169385,0.0263637,-0.00186489,-0.0116528,331.376,331.394,331.338,-0.00186798,0.000209641,25,2333,3
308.325,0.0767406,0.0594916,-0.013774,-0.0530749,308.37,308.411,308.284,-0.0138049,0.000333288,25,2334,3
331.209,0.026289,0.0637291,-0.00213332,-0.018163,331.257,331.301,331.165,-0.00213864,0.000333288,25,2335,3
-250.538,0.271175,-0.122635,-1.6158,-0.201161,-250.613,-1.61507,-250.448,-250.704,0.00830233,25,2336,3
-68.1423,0.579199,-0.0335964,-1.10928,-0.429612,-68.1627,-0.140948,-68.121,-69.1523,0.00830233,25,2337,3
-250.019,0.396657,-0.259481,-1.61445,-0.294413,-250.177,-1.61289,-249.828,-250.369,0.0122607,25,2338,3
-68.0007,0.846126,-0.0707177,-1.10793,-0.627823,-68.0437,-0.0848245,-67.9562,-69.1113,0.0122607,25,2339,3
-250.53,0.277652,-0.119935,-1.61581,-0.192123,-250.621,-1.61507,-250.448,-250.704,0.00830233,25,2340,3
-68.1402,0.59299,-0.0328601,-1.10928,-0.410367,-68.1649,-0.140948,-68.121,-69.1523,0.00830233,25,2341,3
-250.003,0.40629,-0.253773,-1.61445,-0.28097,-250.194,-1.61289,-249.828,-250.369,0.0122607,25,2342,3
-67.9962,0.866483,-0.0691689,-1.10793,-0.599415,-68.0482,-0.0848245,-67.9562,-69.1113,0.0122607,25,2343,3
68.5156,0.589762,0.0337741,-0.60705,-0.437458,68.536,68.5611,68.5003,-0.616817,0.00415116,25,2344,3
159.658,0.47941,0.0784391,-0.304829,-0.355605,159.706,159.764,159.603,-0.30726,0.00415116,25,2345,3
68.3737,0.861718,0.0708775,-0.608432,-0.639381,68.4167,68.4693,68.3418,-0.629114,0.00613036,25,2346,3
159.327,0.701458,0.165419,-0.306771,-0.520505,159.428,159.55,159.21,-0.311931,0.00613036,25,2347,3
68.5134,0.603815,0.0330332,-0.60705,-0.417847,68.5382,68.5611,68.5003,-0.616817,0.00415116,25,2348,3
159.653,0.490835,0.0767147,-0.304829,-0.339662,159.711,159.764,159.603,-0.30726,0.00415116,25,2349,3
68.3691,0.882439,0.0693231,-0.608432,-0.610464,68.4213,68.4693,68.3418,-0.629114,0.00613036,25,2350,3
159.317,0.718358,0.161789,-0.306771,-0.496921,159.438,159.55,159.21,-0.311931,0.00613036,25,2351,3
228.072,0.341689,0.111765,-0.128335,-0.253456,228.14,228.223,227.99,-0.129164,0.00207558,25,2352,3
273.725,0.221158,0.133853,-0.0499424,-0.164047,273.806,273.905,273.626,-0.0502405,0.00207558,25,2353,3
227.598,0.500948,0.236617,-0.13139,-0.371759,227.741,227.917,227.424,-0.133158,0.00306518,25,2354,3
273.155,0.324504,0.284153,-0.052608,-0.240858,273.328,273.539,272.945,-0.053245,0.00306518,25,2355,3
228.065,0.349838,0.109307,-0.128335,-0.242085,228.147,228.223,227.99,-0.129164,0.00207558,25,2356,3
273.716,0.22643,0.130909,-0.0499424,-0.156689,273.815,273.905,273.626,-0.0502405,0.00207558,25,2357,3
227.582,0.513054,0.231425,-0.13139,-0.354865,227.757,227.917,227.424,-0.133158,0.00306518,25,2358,3
273.137,0.332384,0.277915,-0.052608,-0.229862,273.346,273.539,272.945,-0.053245,0.00306518,25,2359,3
307.989,0.117442,0.150527,-0.0136445,-0.0871092,308.081,308.192,307.878,-0.0137202,0.00103779,25,2360,3
330.849,0.0401758,0.161238,-0.000887173,-0.0298012,330.947,331.067,330.729,-0.000899137,0.00103779,25,2361,3
307.351,0.170417,0.319319,-0.0138718,-0.126548,307.545,307.782,307.114,-0.0140302,0.00153259,25,2362,3
330.172,0.0547326,0.339665,0.00251104,-0.0407624,330.378,330.63,329.92,0.00248759,0.00153259,25,2363,3
307.98,0.120237,0.147215,-0.0136446,-0.0832092,308.09,308.192,307.878,-0.0137203,0.00103779,25,2364,3
330.839,0.041134,0.157675,-0.000887275,-0.0284638,330.957,331.067,330.729,-0.000899239,0.00103779,25,2365,3
307.33,0.174611,0.312294,-0.0138718,-0.120695,307.565,307.782,307.114,-0.0140302,0.00153259,25,2366,3
330.149,0.0561923,0.332137,0.00251103,-0.0387253,330.4,330.63,329.92,0.00248759,0.00153259,25,2367,3
-248.792,0.593059,-0.583286,-1.61811,-0.440137,-249.146,-1.61457,-248.363,-249.579,0.0363966,25,2368,3
-67.6639,1.26451,-0.160089,-1.10822,-0.938166,-67.761,0.0252236,-67.5627,-68.9956,0.0363966,25,2369,3
-246.559,0.829188,-1.17396,-1.63049,-0.616412,-247.271,-1.62348,-245.695,-248.142,0.0522301,25,2370,3
-67.0383,1.81589,-0.326009,-1.10017,-1.34832,-67.2363,0.21191,-66.8331,-68.7536,0.0522301,25,2371,3
-248.754,0.607412,-0.570399,-1.61811,-0.420108,-249.184,-1.61457,-248.363,-249.579,0.0363966,25,2372,3
-67.6535,1.29484,-0.156582,-1.10822,-0.895839,-67.7714,0.0252236,-67.5627,-68.9956,0.0363966,25,2373,3
-246.482,0.850233,-1.14795,-1.63049,-0.587044,-247.347,-1.62348,-245.695,-248.142,0.0522301,25,2374,3
-67.0174,1.86047,-0.318893,-1.10017,-1.28612,-67.2573,0.21191,-66.8331,-68.7536,0.0522301,25,2375,3
68.0362,1.2863,0.160396,-0.60839,-0.954381,68.1335,68.2525,67.9639,-0.655077,0.0181983,25,2376,3
158.544,1.04753,0.372114,-0.306996,-0.777218,158.77,159.046,158.28,-0.318676,0.0181983,25,2377,3
67.4136,1.84435,0.325237,-0.612844,-1.36948,67.611,67.8523,67.2683,-0.708879,0.0261151,25,2378,3
157.096,1.50146,0.756261,-0.314018,-1.11502,157.554,158.115,156.559,-0.338091,0.0261151,25,2379,3
68.0258,1.3172,0.156872,-0.60839,-0.911265,68.1439,68.2525,67.9639,-0.655077,0.0181983,25,2380,3
158.52,1.07269,0.363919,-0.306996,-0.742111,158.794,159.046,158.28,-0.318676,0.0181983,25,2381,3
67.3926,1.88965,0.318102,-0.612844,-1.30627,67.632,67.8523,67.2683,-0.708879,0.0261151,25,2382,3
157.047,1.53848,0.739644,-0.314018,-1.06336,157.603,158.115,156.559,-0.338091,0.0261151,25,2383,3
226.479,0.749933,0.53152,-0.133784,-0.55642,226.801,227.196,226.089,-0.13781,0.00909915,25,2384,3
271.812,0.487426,0.638374,-0.0542558,-0.361668,272.199,272.673,271.34,-0.0557191,0.00909915,25,2385,3
224.416,1.06678,1.08047,-0.132028,-0.79249,225.071,225.873,223.622,-0.140226,0.0130575,25,2386,3
269.362,0.675189,1.28912,-0.0379223,-0.501988,270.143,271.1,268.408,-0.0407428,0.0130575,25,2387,3
226.444,0.767949,0.51982,-0.133784,-0.531278,226.836,227.196,226.089,-0.13781,0.00909915,25,2388,3
271.77,0.499152,0.624306,-0.0542558,-0.345304,272.24,272.673,271.34,-0.0557191,0.00909915,25,2389,3
224.346,1.09334,1.0567,-0.132028,-0.755431,225.141,225.873,223.622,-0.140226,0.0130575,25,2390,3
269.278,0.69238,1.26063,-0.0379223,-0.477998,270.227,271.1,268.408,-0.0407428,0.0130575,25,2391,3
305.841,0.257741,0.717599,-0.0114495,-0.191298,306.276,306.808,305.309,-0.0118172,0.00454957,25,2392,3
328.553,0.0835935,0.766856,0.0132138,-0.0621653,329.017,329.587,327.984,0.013163,0.00454957,25,2393,3
303.122,0.332168,1.43553,0.0191474,-0.247587,303.992,305.057,302.057,0.0185404,0.00652877,25,2394,3
325.677,0.0789274,1.5191,0.0535294,-0.0598562,326.597,327.724,324.55,0.0534256,0.00652877,25,2395,3
305.794,0.263994,0.701738,-0.0114495,-0.182572,306.322,306.808,305.309,-0.0118172,0.00454957,25,2396,3
328.503,0.0857364,0.749793,0.0132138,-0.0591748,329.068,329.587,327.984,0.013163,0.00454957,25,2397,3
303.028,0.34122,1.40362,0.0191474,-0.234955,304.086,305.057,302.057,0.0185404,0.00652877,25,2398,3
325.577,0.0820501,1.48505,0.0535293,-0.0554986,326.697,327.724,324.55,0.0534256,0.00652877,25,2399,3
-241.395,1.22895,-2.52794,-1.65033,-0.912953,-242.927,-1.63431,-239.535,-244.803,0.151961,25,2400,3
-65.6191,2.64431,-0.699609,-1.09101,-1.96264,-66.0438,0.536719,-65.1841,-68.1066,0.151961,25,2401,3
-232.155,1.61088,-4.98873,-1.83141,-1.20174,-235.176,-1.8016,-228.482,-238.879,0.215295,25,2402,3
-63.0039,3.84618,-1.41589,-1.15179,-2.85937,-63.8627,1.01366,-62.1477,-66.8844,0.215295,25,2403,3
-241.23,1.25954,-2.47177,-1.65033,-0.870274,-243.093,-1.63431,-239.535,-244.803,0.151961,25,2404,3
-65.574,2.70846,-0.684296,-1.09101,-1.87311,-66.0889,0.536719,-65.1841,-68.1066,0.151961,25,2405,3
-231.827,1.65577,-4.87715,-1.83141,-1.13911,-235.504,-1.8016,-228.482,-238.879,0.215295,25,2406,3
-62.912,3.94394,-1.38469,-1.15179,-2.72295,-63.9546,1.01366,-62.1477,-66.8844,0.215295,25,2407,3
65.9938,2.68911,0.697632,-0.621816,-1.99593,66.417,66.9347,65.6886,-0.834277,0.0759804,25,2408,3
153.789,2.19394,1.62376,-0.328569,-1.62853,154.774,155.978,152.638,-0.382616,0.0759804,25,2409,3
63.3879,3.93112,1.40878,-0.554138,-2.92234,64.242,65.2875,62.8189,-1.03072,0.107648,25,2410,3
147.75,3.12434,3.26465,-0.179819,-2.32398,149.729,152.151,145.443,-0.295239,0.107648,25,2411,3
65.9486,2.75439,0.682292,-0.621816,-1.90483,66.4622,66.9347,65.6886,-0.834277,0.0759804,25,2412,3
153.683,2.24732,1.58799,-0.328569,-1.55403,154.879,155.978,152.638,-0.382616,0.0759804,25,2413,3
63.2961,4.03087,1.37762,-0.554138,-2.78314,64.3338,65.2875,62.8189,-1.03072,0.107648,25,2414,3
147.537,3.20493,3.19231,-0.179819,-2.21151,149.942,152.151,145.443,-0.295239,0.107648,25,2415,3
219.703,1.56778,2.31582,-0.140678,-1.16401,221.107,222.825,218.003,-0.159462,0.0379902,25,2416,3
263.719,1.00499,2.76769,-0.0259876,-0.746603,265.397,267.45,261.672,-0.0326347,0.0379902,25,2417,3
211.178,2.12234,4.6135,0.0611439,-1.58087,213.973,217.397,207.79,0.0256068,0.0538238,25,2418,3
253.629,1.25346,5.45887,0.19515,-0.936565,256.934,260.986,249.587,0.184598,0.0538238,25,2419,3
219.552,1.60618,2.26468,-0.140678,-1.11042,221.258,222.825,218.003,-0.159462,0.0379902,25,2420,3
263.538,1.03003,2.7063,-0.0259876,-0.711672,265.577,267.45,261.672,-0.0326347,0.0379902,25,2421,3
210.876,2.17918,4.51091,0.0611439,-1.50155,214.275,217.397,207.79,0.0256068,0.0538238,25,2422,3
253.269,1.28977,5.33687,0.19515,-0.885887,257.294,260.986,249.587,0.184598,0.0538238,25,2423,3
296.784,0.508785,3.09708,0.0572082,-0.378647,298.66,300.959,294.487,0.0557108,0.0189951,25,2424,3
318.874,0.134335,3.30515,0.1189,-0.101014,320.875,323.328,316.421,0.118675,0.0189951,25,2425,3
285.561,0.517684,6.06195,0.280866,-0.391004,289.229,293.73,281.063,0.278459,0.0269119,25,2426,3
306.924,-0.0110374,6.43691,0.332781,0.00104912,310.818,315.597,302.148,0.330161,0.0269119,25,2427,3
296.581,0.522096,3.02805,0.0572082,-0.360072,298.863,300.959,294.487,0.0557108,0.0189951,25,2428,3
318.656,0.138834,3.23108,0.1189,-0.0947358,321.093,323.328,316.421,0.118675,0.0189951,25,2429,3
285.16,0.536657,5.92584,0.280866,-0.364526,289.63,293.73,281.063,0.278459,0.0269119,25,2430,3
306.497,-0.0045413,6.29176,0.332781,0.0101144,311.245,315.597,302.148,0.330161,0.0269119,25,2431,3
-210.81,2.5324,-10.4718,-1.84793,-1.87826,-217.155,-1.7565,-203.13,-224.927,0.620593,25,2432,3
-57.2529,5.37581,-2.88274,-1.14883,-3.98735,-59.0006,1.85108,-55.603,-63.6504,0.620593,25,2433,3
-172.909,3.6298,-20.4033,-1.57028,-2.68583,-185.289,-1.32493,-158.019,-200.425,0.873929,25,2434,3
-46.9995,7.42254,-5.55996,-1.09957,-5.49898,-50.3729,3.31703,-44.0323,-57.7567,0.873929,25,2435,3
-210.125,2.59259,-10.2391,-1.84793,-1.79426,-217.841,-1.7565,-203.13,-224.927,0.620593,25,2436,3
-57.0651,5.50374,-2.81899,-1.14883,-3.80883,-59.1884,1.85108,-55.603,-63.6504,0.620593,25,2437,3
-171.589,3.71005,-19.9552,-1.57028,-2.57383,-186.609,-1.32493,-158.019,-200.425,0.873929,25,2438,3
-46.6397,7.59304,-5.43782,-1.09957,-5.26104,-50.7327,3.31703,-44.0323,-57.7567,0.873929,25,2439,3
57.5973,5.47417,2.88785,-0.561027,-4.06026,59.3479,61.5015,56.577,-1.69426,0.310296,25,2440,3
134.238,4.4586,6.7186,-0.190504,-3.30704,138.31,143.296,129.557,-0.495453,0.310296,25,2441,3
47.2909,7.55385,5.58048,-0.617072,-5.59637,50.6768,54.8893,45.5802,-3.11891,0.436965,25,2442,3
110.188,6.19815,13.0062,-0.329553,-4.59086,118.08,127.728,101.286,-1.07573,0.436965,25,2443,3
57.409,5.6044,2.82393,-0.561027,-3.87852,59.5362,61.5015,56.577,-1.69426,0.310296,25,2444,3
133.8,4.56471,6.56976,-0.190504,-3.15897,138.749,143.296,129.557,-0.495453,0.310296,25,2445,3
46.9298,7.72748,5.45788,-0.617072,-5.35408,51.0379,54.8893,45.5802,-3.11891,0.436965,25,2446,3
109.346,6.33955,12.7205,-0.329553,-4.39354,118.921,127.728,101.286,-1.07573,0.436965,25,2447,3
191.83,3.18737,9.56721,0.0540188,-2.36416,197.628,204.727,184.838,-0.054076,0.155148,25,2448,3
230.33,2.06445,11.4391,0.199484,-1.53123,237.261,245.751,221.881,0.159832,0.155148,25,2449,3
157.414,4.5021,18.5749,-0.167575,-3.33287,168.684,182.463,143.916,-0.448808,0.218482,25,2450,3
188.946,3.00503,22.2833,-0.100228,-2.22247,202.467,218.997,172.53,-0.214318,0.218482,25,2451,3
191.204,3.26324,9.35498,0.0540188,-2.25829,198.253,204.727,184.838,-0.054076,0.155148,25,2452,3
229.582,2.11356,11.1849,0.199484,-1.46269,238.01,245.751,221.881,0.159832,0.155148,25,2453,3
156.212,4.60315,18.1669,-0.167575,-3.19186,169.886,182.463,143.916,-0.448808,0.218482,25,2454,3
187.504,3.07046,21.7939,-0.100228,-2.13116,203.908,218.997,172.53,-0.214318,0.218482,25,2455,3
259.265,1.0894,12.8287,0.298733,-0.807962,267.037,276.558,249.754,0.288463,0.0775741,25,2456,3
278.598,0.366049,13.7433,0.363304,-0.271405,286.923,297.123,268.4,0.361281,0.0775741,25,2457,3
212.629,1.70545,25.0603,-0.0712697,-1.25864,227.834,246.424,194.075,-0.107996,0.109241,25,2458,3
228.444,0.741335,26.9064,-0.0626074,-0.543733,244.769,264.729,208.494,-0.0720732,0.109241,25,2459,3
258.424,1.11526,12.5433,0.298733,-0.771872,267.877,276.558,249.754,0.288463,0.0775741,25,2460,3
277.696,0.374664,13.4372,0.363304,-0.259382,287.825,297.123,268.4,0.361281,0.0775741,25,2461,3
211.007,1.74005,24.5099,-0.0712697,-1.21036,229.456,246.424,194.075,-0.107996,0.109241,25,2462,3
226.703,0.753171,26.3153,-0.0626074,-0.527215,246.51,264.729,208.494,-0.0720732,0.109241,25,2463,3
-137.472,4.16805,-29.8663,-1.41578,-3.09721,-155.597,-1.02598,-115.708,-177.751,0.531966,25,2464,3
-37.425,9.22396,-8.09624,-1.05601,-6.84645,-42.3378,4.93065,-33.4871,-52.2624,0.531966,25,2465,3
-109.018,4.80506,-37.403,-1.57626,-3.56235,-131.711,-0.853127,-81.9947,-159.458,0.5953,25,2466,3
-29.6294,10.1692,-10.1768,-1.1217,-7.54032,-35.8032,6.4507,-25.3872,-47.6177,0.5953,25,2467,3
-135.543,4.27261,-29.2115,-1.41578,-2.95129,-157.526,-1.02598,-115.708,-177.751,0.531966,25,2468,3
-36.9015,9.44806,-7.91853,-1.05601,-6.53373,-42.8613,4.93065,-33.4871,-52.2624,0.531966,25,2469,3
-106.597,4.91783,-36.581,-1.57626,-3.40498,-134.132,-0.853127,-81.9947,-159.458,0.5953,25,2470,3
-28.97,10.4089,-9.95298,-1.1217,-7.20575,-36.4625,6.4507,-25.3872,-47.6177,0.5953,25,2471,3
37.6674,9.41124,8.13224,-0.667099,-6.98535,42.6021,48.6346,35.8873,-4.91951,0.265983,25,2472,3
87.726,7.58665,18.9714,-0.440408,-5.63224,99.2384,113.311,74.9484,-1.73549,0.265983,25,2473,3
29.851,10.358,10.2165,-0.600064,-7.68041,36.0491,43.6282,28.485,-6.81318,0.29765,25,2474,3
69.5273,8.44157,23.817,-0.295367,-6.25904,83.9765,101.645,54.0819,-2.51844,0.29765,25,2475,3
37.1417,9.63979,7.95379,-0.667099,-6.66642,43.1278,48.6346,35.8873,-4.91951,0.265983,25,2476,3
86.4999,7.77199,18.5552,-0.440408,-5.37361,100.465,113.311,74.9484,-1.73549,0.265983,25,2477,3
29.1892,10.6023,9.99187,-0.600064,-7.33955,36.7108,43.6282,28.485,-6.81318,0.29765,25,2478,3
67.9847,8.64032,23.2933,-0.295367,-5.98167,85.5191,101.645,54.0819,-2.51844,0.29765,25,2479,3
125.259,5.31976,27.1351,-0.31911,-3.95119,141.726,161.854,105.572,-0.761153,0.132991,25,2480,3
150.256,3.34653,32.6122,-0.275319,-2.488,170.048,194.238,126.218,-0.428484,0.132991,25,2481,3
99.3217,6.04534,34.0234,-0.13243,-4.48191,119.963,145.203,74.8942,-0.944825,0.148825,25,2482,3
119.2,3.93352,40.8374,-0.0854123,-2.91589,143.976,174.271,89.2078,-0.387566,0.148825,25,2483,3
123.505,5.45149,26.54,-0.31911,-3.76738,143.479,161.854,105.572,-0.761153,0.132991,25,2484,3
148.15,3.43167,31.8973,-0.275319,-2.36919,172.154,194.238,126.218,-0.428484,0.132991,25,2485,3
97.1184,6.18727,33.2755,-0.13243,-4.28385,122.167,145.203,74.8942,-0.944825,0.148825,25,2486,3
116.556,4.02554,39.9399,-0.0854123,-2.78748,146.62,174.271,89.2078,-0.387566,0.148825,25,2487,3
169,1.66371,36.7347,-0.262915,-1.2403,191.295,218.543,141.787,-0.298264,0.0664957,25,2488,3
181.495,0.441703,39.4913,-0.266031,-0.334389,205.464,234.756,152.209,-0.272065,0.0664957,25,2489,3
134.117,2.10446,45.9539,-0.0867472,-1.55974,161.998,196.088,100.107,-0.166436,0.0744125,25,2490,3
144.063,0.749667,49.3694,-0.112946,-0.555439,174.017,210.64,107.453,-0.12588,0.0744125,25,2491,3
166.628,1.70926,35.9297,-0.262915,-1.17673,193.666,218.543,141.787,-0.298264,0.0664957,25,2492,3
178.946,0.458624,38.626,-0.266031,-0.310776,208.013,234.756,152.209,-0.272065,0.0664957,25,2493,3
131.142,2.15343,44.9441,-0.0867472,-1.49142,164.973,196.088,100.107,-0.166436,0.0744125,25,2494,3
140.868,0.766934,48.2848,-0.112946,-0.531342,177.212,210.64,107.453,-0.12588,0.0744125,25,2495,3
-85.8699,5.11404,-43.5229,-1.54698,-3.79688,-112.276,-0.359558,-54.7708,-144.562,0.3214,25,2496,3
-23.3407,11.0564,-11.8307,-1.0902,-8.20372,-30.518,8.43275,-19.497,-43.8846,0.3214,25,2497,3
-69.1511,5.49976,-47.9603,-1.57184,-4.07872,-98.2474,0.482249,-35.6261,-133.826,0.337234,25,2498,3
-18.8587,11.5985,-12.9858,-0.96696,-8.60158,-26.7367,10.3562,-15.778,-41.1406,0.337234,25,2499,3
-83.0525,5.23923,-42.5665,-1.54698,-3.62217,-115.093,-0.359558,-54.7708,-144.562,0.3214,25,2500,3
-22.5743,11.3223,-11.5705,-1.0902,-7.83263,-31.2844,8.43275,-19.497,-43.8846,0.3214,25,2501,3
-66.0447,5.6301,-46.9058,-1.57184,-3.89683,-101.354,0.482249,-35.6261,-133.826,0.337234,25,2502,3
-18.0175,11.8733,-12.7002,-0.96696,-8.21807,-27.5779,10.3562,-15.778,-41.1406,0.337234,25,2503,3
23.5418,11.2546,11.8806,-0.602168,-8.35077,30.7495,39.5631,23.2742,-9.14808,0.1607,25,2504,3
54.8166,9.13477,27.6945,-0.324174,-6.77844,71.6182,92.1631,37.8487,-3.9012,0.1607,25,2505,3
18.8653,11.6968,13.1696,-0.440971,-8.67456,26.8548,36.6307,19.778,-11.1295,0.168617,25,2506,3
44.137,9.45068,30.5561,-0.184687,-7.00865,62.6744,85.3423,26.8294,-5.54508,0.168617,25,2507,3
22.7723,11.5253,11.6194,-0.602168,-7.97305,31.519,39.5631,23.2742,-9.14808,0.1607,25,2508,3
53.0229,9.35499,27.0856,-0.324174,-6.47113,73.4119,92.1631,37.8487,-3.9012,0.1607,25,2509,3
18.0122,11.974,12.88,-0.440971,-8.28767,27.708,36.6307,19.778,-11.1295,0.168617,25,2510,3
42.1577,9.67452,29.8842,-0.184687,-6.69628,64.6537,85.3423,26.8294,-5.54508,0.168617,25,2511,3
78.299,6.48117,39.5677,-0.177743,-4.81039,102.304,131.657,50.2832,-1.51472,0.0803501,25,2512,3
93.9371,4.14082,47.5118,-0.12683,-3.07493,122.763,158.009,59.1712,-0.606675,0.0803501,25,2513,3
63.1729,6.71665,43.5805,-0.0594784,-4.98098,89.6119,121.942,33.0485,-2.26519,0.0843085,25,2514,3
75.8996,4.342,52.2658,-0.0218075,-3.21999,107.608,146.381,37.9567,-0.852026,0.0843085,25,2515,3
75.7368,6.6384,38.698,-0.177743,-4.59097,104.867,131.657,50.2832,-1.51472,0.0803501,25,2516,3
90.8613,4.24277,46.4677,-0.12683,-2.93266,125.839,158.009,59.1712,-0.606675,0.0803501,25,2517,3
60.35,6.87564,42.6223,-0.0594784,-4.75912,92.4348,121.942,33.0485,-2.26519,0.0843085,25,2518,3
72.5142,4.44479,51.1166,-0.0218075,-3.07654,110.993,146.381,37.9567,-0.852026,0.0843085,25,2519,3
105.644,2.125,53.4924,-0.114366,-1.58044,138.099,177.781,66.0765,-0.22894,0.040175,25,2520,3
113.417,0.654893,57.5013,-0.123901,-0.490609,148.307,190.962,70.7779,-0.139739,0.040175,25,2521,3
85.4489,2.29896,58.7894,-0.0182073,-1.70498,121.115,164.727,42.0476,-0.229328,0.0421542,25,2522,3
91.7984,0.793482,63.1512,-0.0443346,-0.58911,130.111,176.959,44.9811,-0.075129,0.0421542,25,2523,3
102.182,2.17962,52.3172,-0.114366,-1.50421,141.561,177.781,66.0765,-0.22894,0.040175,25,2524,3
109.697,0.675081,56.2384,-0.123901,-0.462437,152.027,190.962,70.7779,-0.139739,0.040175,25,2525,3
81.6411,2.35347,57.4969,-0.0182073,-1.62891,124.923,164.727,42.0476,-0.229328,0.0421542,25,2526,3
87.7084,0.812902,61.7629,-0.0443346,-0.562008,134.201,176.959,44.9811,-0.075129,0.0421542,25,2527,3
-55.9571,5.79844,-51.5043,-1.59538,-4.30151,-87.2036,1.87701,-21.2214,-125.412,0.174555,25,2528,3
-15.6254,12.1265,-13.8066,-1.12098,-8.99442,-24.0014,12.1169,-13.63,-39.2347,0.174555,25,2529,3
-46.998,5.599,-53.9311,-1.96392,-4.15314,-79.7166,3.33661,-12.29,-119.725,0.178513,25,2530,3
-13.3208,12.0426,-14.6703,-2.8317,-8.9319,-22.2211,12.4143,-12.4406,-38.3473,0.178513,25,2531,3
-52.6213,5.93707,-50.372,-1.59538,-4.10804,-90.5394,1.87701,-21.2214,-125.412,0.174555,25,2532,3
-14.7311,12.415,-13.503,-1.12098,-8.59177,-24.8958,12.1169,-13.63,-39.2347,0.174555,25,2533,3
-43.5048,5.73247,-52.7453,-1.96392,-3.96688,-83.2098,3.33661,-12.29,-119.725,0.178513,25,2534,3
-12.3708,12.3289,-14.3478,-2.8317,-8.53247,-23.1711,12.4143,-12.4406,-38.3473,0.178513,25,2535,3
14.9293,12.1047,14.2749,-0.542244,-8.97858,23.5891,34.1849,17.1995,-13.4082,0.0872773,25,2536,3
35.69,9.63236,32.8322,-0.178736,-7.14488,55.6077,79.9641,18.9896,-7.83476,0.0872773,25,2537,3
12.2151,12.7638,14.674,-2.82494,-9.46817,21.1154,32.0154,15.2756,-16.7854,0.0892564,25,2538,3
29.3658,10.5727,34.3716,-1.82403,-7.84422,50.2138,75.7153,14.5171,-12.4769,0.0892564,25,2539,3
14.0043,12.393,13.961,-0.542244,-8.57624,24.5141,34.1849,17.1995,-13.4082,0.0872773,25,2540,3
33.5627,9.86192,32.1101,-0.178736,-6.82453,57.7349,79.9641,18.9896,-7.83476,0.0872773,25,2541,3
11.2628,13.0685,14.3508,-2.82494,-9.04298,22.0677,32.0154,15.2756,-16.7854,0.0892564,25,2542,3
27.1356,10.8264,33.6146,-1.82403,-7.49018,52.444,75.7153,14.5171,-12.4769,0.0892564,25,2543,3
51.5327,6.71385,46.6359,-0.0263066,-4.98009,79.8246,114.421,20.4409,-3.531,0.0436386,25,2544,3
62.2037,4.25866,55.7989,-0.00575912,-3.15944,96.0551,137.45,22.1539,-1.35048,0.0436386,25,2545,3
42.8203,7.34321,48.954,-0.751755,-5.44893,72.5133,108.833,12.8367,-7.08792,0.0446282,25,2546,3
52.4981,4.47672,58.3352,-0.216219,-3.3216,87.8839,131.16,12.0327,-3.02718,0.0446282,25,2547,3
48.5112,6.87389,45.6102,-0.0263066,-4.75675,82.846,114.421,20.4409,-3.531,0.0436386,25,2548,3
58.5892,4.36067,54.572,-0.00575912,-3.01708,99.6696,137.45,22.1539,-1.35048,0.0436386,25,2549,3
39.6441,7.52015,47.8758,-0.751755,-5.202,75.6896,108.833,12.8367,-7.08792,0.0446282,25,2550,3
48.7155,4.58431,57.0512,-0.216219,-3.17145,91.6665,131.16,12.0327,-3.02718,0.0446282,25,2551,3
70.2273,2.19585,62.674,-0.00604522,-1.63066,108.25,154.746,24.0637,-0.338228,0.0218193,25,2552,3
75.5198,0.732904,67.2876,-0.0522838,-0.545148,116.342,166.259,25.6558,-0.105037,0.0218193,25,2553,3
60.1676,2.16258,65.1623,0.032471,-1.60387,99.6995,148.037,12.4942,-0.631831,0.0223141,25,2554,3
65.3215,0.72856,69.6426,-0.138171,-0.543533,107.575,159.24,13.8722,-0.353987,0.0223141,25,2555,3
66.1677,2.24995,61.2959,-0.00604522,-1.55516,112.309,154.746,24.0637,-0.338228,0.0218193,25,2556,3
71.1624,0.751801,65.8085,-0.0522838,-0.518777,120.7,166.259,25.6558,-0.105037,0.0218193,25,2557,3
55.9467,2.21389,63.7294,0.032471,-1.53226,103.92,148.037,12.4942,-0.631831,0.0223141,25,2558,3
60.8135,0.748876,68.1124,-0.138171,-0.515182,112.083,159.24,13.8722,-0.353987,0.0223141,25,2559,3
-40.8481,4.72974,-55.4671,-2.4416,-3.50759,-74.5155,5.09622,-7.24401,-115.657,0.0922591,25,2560,3
-11.1927,10.5766,-15.7682,-5.81057,-7.8444,-20.7631,10.9194,-11.0503,-37.6354,0.0922591,25,2561,3
-37.5856,3.67373,-56.0051,-2.38451,-2.72413,-71.58,6.59699,-5.02629,-113.121,0.0932817,25,2562,3
-9.81752,7.9333,-16.4195,-7.54231,-5.88216,-19.7834,8.50696,-9.22007,-36.4301,0.0932817,25,2563,3
-37.2706,4.84177,-54.2527,-2.4416,-3.35125,-78.093,5.09622,-7.24401,-115.657,0.0922591,25,2564,3
-10.1752,10.8278,-15.4227,-5.81057,-7.49378,-21.7806,10.9194,-11.0503,-37.6354,0.0922591,25,2565,3
-33.9738,3.76044,-54.7791,-2.38451,-2.60312,-75.1918,6.59699,-5.02629,-113.121,0.0932817,25,2566,3
-8.75811,8.12007,-16.0599,-7.54231,-5.62153,-20.8428,8.50696,-9.22007,-36.4301,0.0932817,25,2567,3
11.2996,12.6728,13.736,-8.80299,-9.40003,19.6398,29.8303,12.7352,-20.429,0.0461296,25,2568,3
25.1102,12.7712,34.323,-8.82122,-9.47618,45.9485,71.4186,11.9179,-21.0991,0.0461296,25,2569,3
11.9759,9.40378,12.207,-14.6672,-6.96924,19.3875,28.4479,8.89482,-20.6464,0.0466408,25,2570,3
25.3148,10.9518,31.4867,-21.789,-8.10399,44.4373,67.8596,8.50862,-28.405,0.0466408,25,2571,3
10.4161,12.9747,13.4361,-8.80299,-8.97875,20.5233,29.8303,12.7352,-20.429,0.0461296,25,2572,3
22.9009,13.0785,33.573,-8.82122,-9.04745,48.1578,71.4186,11.9179,-21.0991,0.0461296,25,2573,3
11.1905,9.62213,11.9404,-14.6672,-6.66453,20.1729,28.4479,8.89482,-20.6464,0.0466408,25,2574,3
23.2936,11.1943,30.8006,-21.789,-7.76564,46.4585,67.8596,8.50862,-28.405,0.0466408,25,2575,3
34.9102,10.9405,50.5254,-6.07199,-8.12412,65.5834,103.091,9.46139,-18.1307,0.0230648,25,2576,3
42.4763,7.22003,61.1371,-2.59873,-5.37106,79.588,124.984,6.58933,-12.1073,0.0230648,25,2577,3
32.9281,13.7,47.0324,-27.7074,-10.1188,61.5003,96.6849,7.30294,-37.2668,0.0233204,25,2578,3
35.2077,16.8896,59.1456,-29.4679,-12.4464,71.1382,116.044,5.96275,-45.1288,0.0233204,25,2579,3
31.6562,11.2097,49.4208,-6.07199,-7.74848,68.8373,103.091,9.46139,-18.1307,0.0230648,25,2580,3
38.5356,7.40683,59.7994,-2.59873,-5.11039,83.5287,124.984,6.58933,-12.1073,0.0230648,25,2581,3
29.9167,13.9855,46.0101,-27.7074,-9.72039,64.5118,96.6849,7.30294,-37.2668,0.0233204,25,2582,3
31.4202,17.2149,57.8599,-29.4679,-11.9926,74.9258,116.044,5.96275,-45.1288,0.0233204,25,2583,3
50.703,3.14777,67.782,-0.676695,-2.35583,91.8375,142.169,5.59575,-5.90138,0.0115324,25,2584,3
56.3209,1.65275,71.82,-1.61754,-1.24107,99.9119,153.284,8.77274,-7.44193,0.0115324,25,2585,3
33.481,18.453,70.6527,-26.5077,-13.5603,76.3908,131.149,6.07437,-53.8596,0.0116602,25,2586,3
30.7952,14.0846,79.894,-20.0946,-10.2729,79.263,142.955,6.59839,-59.5896,0.0116602,25,2587,3
46.3243,3.24262,66.2956,-0.676695,-2.22346,96.2162,142.169,5.59575,-5.90138,0.0115324,25,2588,3
51.6867,1.70647,70.2468,-1.61754,-1.16611,104.546,153.284,8.77274,-7.44193,0.0115324,25,2589,3
28.9465,18.7721,69.1135,-26.5077,-13.1149,80.9252,131.149,6.07437,-53.8596,0.0116602,25,2590,3
25.6188,14.2551,78.1368,-20.0946,-10.035,84.4395,142.955,6.59839,-59.5896,0.0116602,25,2591,3
-250.922,0.115934,-0.0195785,-1.6153,-0.0748222,-250.94,-1.61518,-250.909,-250.952,0.00167713,25,2592,3
-68.2473,0.247099,-0.00535296,-1.10911,-0.159394,-68.2521,-0.183942,-68.2445,-69.1802,0.00167713,25,2593,3
-250.809,0.181264,-0.0470863,-1.61512,-0.11692,-250.851,-1.61482,-250.779,-250.882,0.00266631,25,2594,3
-68.2163,0.386054,-0.0128926,-1.10918,-0.248976,-68.228,-0.170956,-68.2096,-69.173,0.00266631,25,2595,3
-250.921,0.118364,-0.018957,-1.6153,-0.0709087,-250.941,-1.61517,-250.909,-250.952,0.00167713,25,2596,3
-68.2469,0.252226,-0.00518385,-1.10911,-0.151143,-68.2525,-0.183943,-68.2445,-69.1802,0.00167713,25,2597,3
-250.806,0.185034,-0.0455956,-1.61512,-0.110864,-250.854,-1.61482,-250.779,-250.882,0.00266631,25,2598,3
-68.2155,0.394049,-0.0124848,-1.10918,-0.236128,-68.2288,-0.170956,-68.2096,-69.173,0.00266631,25,2599,3
68.6211,0.251718,0.00536557,-0.607236,-0.162373,68.6259,68.6294,68.6192,-0.608878,0.000838566,25,2600,3
159.903,0.204752,0.0125173,-0.305328,-0.13209,159.915,159.923,159.896,-0.305738,0.000838566,25,2601,3
68.59,0.393521,0.0129234,-0.60706,-0.253783,68.6018,68.6101,68.5856,-0.611001,0.00133315,25,2602,3
159.831,0.319953,0.0300881,-0.305221,-0.206351,159.859,159.878,159.813,-0.306201,0.00133315,25,2603,3
68.6207,0.256943,0.00519568,-0.607235,-0.153966,68.6263,68.6294,68.6192,-0.608877,0.000838566,25,2604,3
159.903,0.209009,0.0121206,-0.305329,-0.125239,159.916,159.923,159.896,-0.305739,0.000838566,25,2605,3
68.5892,0.401662,0.0125147,-0.60706,-0.240699,68.6026,68.6101,68.5856,-0.611001,0.00133315,25,2606,3
159.829,0.326584,0.0291363,-0.30522,-0.195696,159.86,159.878,159.813,-0.306201,0.00133315,25,2607,3
228.421,0.146076,0.0178858,-0.128623,-0.0942575,228.438,228.449,228.41,-0.128763,0.000419283,25,2608,3
274.144,0.0944684,0.0214141,-0.0495691,-0.0609812,274.163,274.177,274.13,-0.0496204,0.000419283,25,2609,3
228.318,0.22822,0.0428897,-0.128872,-0.1472,228.357,228.385,228.291,-0.129207,0.000666576,25,2610,3
274.02,0.147735,0.0513971,-0.0502438,-0.0953001,274.066,274.1,273.987,-0.0503645,0.000666576,25,2611,3
228.42,0.149127,0.017319,-0.128623,-0.0893464,228.439,228.449,228.41,-0.128764,0.000419283,25,2612,3
274.142,0.0964558,0.0207347,-0.049571,-0.0577788,274.164,274.177,274.13,-0.0496223,0.000419283,25,2613,3
228.315,0.23296,0.0415329,-0.128872,-0.139585,228.36,228.385,228.291,-0.129207,0.000666576,25,2614,3
274.017,0.150815,0.0497702,-0.0502437,-0.0903548,274.07,274.1,273.987,-0.0503645,0.000666576,25,2615,3
308.461,0.0500053,0.0239988,-0.0128831,-0.0323074,308.482,308.498,308.445,-0.0128969,0.000209641,25,2616,3
331.354,0.0172479,0.0256657,-0.00186489,-0.0111898,331.377,331.394,331.338,-0.00186798,0.000209641,25,2617,3
308.321,0.0784022,0.0578944,-0.013774,-0.0505882,308.374,308.411,308.284,-0.0138049,0.000333288,25,2618,3
331.205,0.0268408,0.062025,-0.00213332,-0.0173372,331.261,331.301,331.165,-0.00213864,0.000333288,25,2619,3
308.459,0.0510781,0.0232404,-0.0128778,-0.030585,308.484,308.498,308.445,-0.0128915,0.000209641,25,2620,3
331.352,0.0176486,0.024846,-0.00186569,-0.0105543,331.379,331.394,331.338,-0.00186879,0.000209641,25,2621,3
308.317,0.0800476,0.0560605,-0.0137744,-0.0479488,308.377,308.411,308.284,-0.0138053,0.000333288,25,2622,3
331.201,0.0274191,0.0600562,-0.00213514,-0.0164084,331.265,331.301,331.165,-0.00214046,0.000333288,25,2623,3
-250.523,0.283751,-0.116732,-1.61581,-0.182995,-250.629,-1.61507,-250.448,-250.704,0.00830233,25,2624,3
-68.138,0.606057,-0.0319782,-1.10928,-0.390811,-68.167,-0.140948,-68.121,-69.1523,0.00830233,25,2625,3
-249.986,0.415063,-0.246988,-1.61445,-0.26784,-250.21,-1.61289,-249.828,-250.369,0.0122607,25,2626,3
-67.9917,0.885375,-0.0673114,-1.10793,-0.571139,-68.0527,-0.0848245,-67.9562,-69.1113,0.0122607,25,2627,3
-250.515,0.289623,-0.113016,-1.6158,-0.173552,-250.636,-1.61507,-250.448,-250.704,0.00830233,25,2628,3
-68.136,0.61856,-0.0309652,-1.10928,-0.370705,-68.1691,-0.140948,-68.121,-69.1523,0.00830233,25,2629,3
-249.97,0.423796,-0.239134,-1.61445,-0.253796,-250.226,-1.61289,-249.828,-250.369,0.0122607,25,2630,3
-67.9874,0.903831,-0.0651804,-1.10793,-0.541461,-68.057,-0.0848245,-67.9562,-69.1113,0.0122607,25,2631,3
68.5112,0.61711,0.0321476,-0.60705,-0.397949,68.5404,68.5611,68.5003,-0.616817,0.00415116,25,2632,3
159.648,0.501641,0.0746623,-0.304829,-0.323489,159.716,159.764,159.603,-0.30726,0.00415116,25,2633,3
68.3647,0.90169,0.067464,-0.608432,-0.581653,68.4258,68.4693,68.3418,-0.629114,0.00613036,25,2634,3
159.306,0.733999,0.157453,-0.306771,-0.473513,159.449,159.55,159.21,-0.311931,0.00613036,25,2635,3
68.5092,0.629851,0.0311281,-0.60705,-0.377461,68.5424,68.5611,68.5003,-0.616817,0.00415116,25,2636,3
159.644,0.511998,0.0722896,-0.304829,-0.306833,159.721,159.764,159.603,-0.30726,0.00415116,25,2637,3
68.3603,0.920476,0.0653252,-0.608432,-0.551443,68.4301,68.4693,68.3418,-0.629114,0.00613036,25,2638,3
159.296,0.74932,0.152458,-0.306771,-0.448874,159.459,159.55,159.21,-0.311931,0.00613036,25,2639,3
228.058,0.357534,0.106384,-0.128335,-0.230567,228.154,228.223,227.99,-0.129164,0.00207558,25,2640,3
273.708,0.231413,0.127408,-0.0499424,-0.149232,273.823,273.905,273.626,-0.0502405,0.00207558,25,2641,3
227.567,0.52419,0.225222,-0.13139,-0.338199,227.772,227.917,227.424,-0.133158,0.00306518,25,2642,3
273.119,0.339562,0.27047,-0.052608,-0.219119,273.364,273.539,272.945,-0.053245,0.00306518,25,2643,3
228.051,0.364922,0.103001,-0.128335,-0.218686,228.161,228.223,227.99,-0.129164,0.00207558,25,2644,3
273.699,0.236193,0.123357,-0.0499424,-0.141545,273.831,273.905,273.626,-0.0502405,0.00207558,25,2645,3
227.553,0.535165,0.218078,-0.13139,-0.32055,227.786,227.917,227.424,-0.133158,0.00306518,25,2646,3
273.102,0.346706,0.261886,-0.052608,-0.207631,273.382,273.539,272.945,-0.053245,0.00306518,25,2647,3
307.97,0.122888,0.14328,-0.0136446,-0.0792419,308.1,308.192,307.878,-0.0137203,0.00103779,25,2648,3
330.828,0.0420384,0.153479,-0.000887275,-0.0271102,330.967,331.067,330.729,-0.000899239,0.00103779,25,2649,3
307.31,0.178329,0.303946,-0.0138718,-0.115132,307.586,307.782,307.114,-0.0140302,0.00153259,25,2650,3
330.128,0.0572814,0.323324,0.00251103,-0.0370954,330.421,330.63,329.92,0.00248759,0.00153259,25,2651,3
307.961,0.125422,0.138723,-0.0136445,-0.0751673,308.109,308.192,307.878,-0.0137202,0.00103779,25,2652,3
330.819,0.0429073,0.148575,-0.000887173,-0.0257132,330.977,331.067,330.729,-0.000899137,0.00103779,25,2653,3
307.291,0.182131,0.294279,-0.0138718,-0.109017,307.605,307.782,307.114,-0.0140302,0.00153259,25,2654,3
330.107,0.0586048,0.312965,0.00251104,-0.0349673,330.442,330.63,329.92,0.00248759,0.00153259,25,2655,3
-248.718,0.620576,-0.555215,-1.61811,-0.400407,-249.22,-1.61457,-248.363,-249.579,0.0363966,25,2656,3
-67.6434,1.32316,-0.152378,-1.10822,-0.853454,-67.7815,0.0252236,-67.5627,-68.9956,0.0363966,25,2657,3
-246.409,0.867728,-1.11748,-1.63049,-0.560861,-247.421,-1.62348,-245.695,-248.142,0.0522301,25,2658,3
-66.9966,1.90019,-0.310301,-1.10017,-1.22667,-67.278,0.21191,-66.8331,-68.7536,0.0522301,25,2659,3
-248.682,0.633587,-0.537483,-1.61811,-0.379482,-249.256,-1.61457,-248.363,-249.579,0.0363966,25,2660,3
-67.6336,1.35066,-0.147553,-1.10822,-0.809234,-67.7913,0.0252236,-67.5627,-68.9956,0.0363966,25,2661,3
-246.336,0.886807,-1.08169,-1.63049,-0.530179,-247.493,-1.62348,-245.695,-248.142,0.0522301,25,2662,3
-66.9768,1.9406,-0.300509,-1.10017,-1.16169,-67.2978,0.21191,-66.8331,-68.7536,0.0522301,25,2663,3
68.0157,1.34597,0.152672,-0.60839,-0.868209,68.154,68.2525,67.9639,-0.655077,0.0181983,25,2664,3
158.497,1.09612,0.3542,-0.306996,-0.707042,158.818,159.046,158.28,-0.318676,0.0181983,25,2665,3
67.372,1.92997,0.309574,-0.612844,-1.24592,67.6526,67.8523,67.2683,-0.708879,0.0261151,25,2666,3
156.999,1.57117,0.719846,-0.314018,-1.01444,157.651,158.115,156.559,-0.338091,0.0261151,25,2667,3
68.0059,1.37398,0.147824,-0.60839,-0.823165,68.1639,68.2525,67.9639,-0.655077,0.0181983,25,2668,3
158.474,1.11893,0.342924,-0.306996,-0.670365,158.84,159.046,158.28,-0.318676,0.0181983,25,2669,3
67.3521,1.97104,0.299756,-0.612844,-1.17988,67.6725,67.8523,67.2683,-0.708879,0.0261151,25,2670,3
156.952,1.60473,0.696981,-0.314018,-0.960465,157.698,158.115,156.559,-0.338091,0.0261151,25,2671,3
226.411,0.784719,0.505931,-0.133784,-0.506181,226.869,227.196,226.089,-0.13781,0.00909915,25,2672,3
271.73,0.510037,0.607644,-0.0542558,-0.329015,272.281,272.673,271.34,-0.0557191,0.00909915,25,2673,3
224.278,1.11633,1.02845,-0.132028,-0.721022,225.209,225.873,223.622,-0.140226,0.0130575,25,2674,3
269.197,0.706575,1.22708,-0.0379223,-0.456754,270.308,271.1,268.408,-0.0407428,0.0130575,25,2675,3
226.378,0.801052,0.489832,-0.133784,-0.479915,226.902,227.196,226.089,-0.13781,0.00909915,25,2676,3
271.691,0.520668,0.588287,-0.0542558,-0.311919,272.32,272.673,271.34,-0.0557191,0.00909915,25,2677,3
224.211,1.14041,0.99574,-0.132028,-0.682305,225.276,225.873,223.622,-0.140226,0.0130575,25,2678,3
269.117,0.72216,1.18789,-0.0379223,-0.431691,270.388,271.1,268.408,-0.0407428,0.0130575,25,2679,3
305.749,0.269701,0.683065,-0.0114495,-0.174031,306.368,306.808,305.309,-0.0118172,0.00454957,25,2680,3
328.455,0.0874803,0.729976,0.0132138,-0.0565649,329.116,329.587,327.984,0.013163,0.00454957,25,2681,3
302.938,0.347649,1.36648,0.0191474,-0.225332,304.175,305.057,302.057,0.0185404,0.00652877,25,2682,3
325.483,0.0826732,1.44609,0.0535293,-0.054566,326.791,327.724,324.55,0.0534256,0.00652877,25,2683,3
305.705,0.275369,0.661241,-0.0114495,-0.164916,306.412,306.808,305.309,-0.0118172,0.00454957,25,2684,3
328.407,0.0894231,0.706499,0.0132138,-0.0534407,329.163,329.587,327.984,0.013163,0.00454957,25,2685,3
302.849,0.355856,1.32258,0.0191474,-0.212135,304.264,305.057,302.057,0.0185404,0.00652877,25,2686,3
325.388,0.0855042,1.39925,0.0535294,-0.0500134,326.886,327.724,324.55,0.0534256,0.00652877,25,2687,3
-241.072,1.28603,-2.40635,-1.65033,-0.830621,-243.251,-1.63431,-239.535,-244.803,0.151961,25,2688,3
-65.5296,2.76701,-0.665909,-1.09101,-1.78549,-66.1333,0.536719,-65.1841,-68.1066,0.151961,25,2689,3
-231.517,1.68603,-4.74894,-1.83141,-1.09381,-235.814,-1.8016,-228.482,-238.879,0.215295,25,2690,3
-62.8228,4.02496,-1.34774,-1.15179,-2.60169,-64.0438,1.01366,-62.1477,-66.8844,0.215295,25,2691,3
-240.915,1.31376,-2.32907,-1.65033,-0.786033,-243.407,-1.63431,-239.535,-244.803,0.151961,25,2692,3
-65.4869,2.82517,-0.644839,-1.09101,-1.69195,-66.176,0.536719,-65.1841,-68.1066,0.151961,25,2693,3
-231.206,1.72672,-4.5954,-1.83141,-1.02837,-236.125,-1.8016,-228.482,-238.879,0.215295,25,2694,3
-62.7357,4.11358,-1.3048,-1.15179,-2.45918,-64.1309,1.01366,-62.1477,-66.8844,0.215295,25,2695,3
65.9045,2.8139,0.664042,-0.621816,-1.81578,66.5063,66.9347,65.6886,-0.834277,0.0759804,25,2696,3
153.581,2.29575,1.54559,-0.328569,-1.48155,154.981,155.978,152.638,-0.382616,0.0759804,25,2697,3
63.2077,4.11383,1.34099,-0.554138,-2.65898,64.4222,65.2875,62.8189,-1.03072,0.107648,25,2698,3
147.332,3.26964,3.10758,-0.179819,-2.11466,150.146,152.151,145.443,-0.295239,0.107648,25,2699,3
65.8617,2.87308,0.642935,-0.621816,-1.72061,66.5491,66.9347,65.6886,-0.834277,0.0759804,25,2700,3
153.481,2.34415,1.49637,-0.328569,-1.40372,155.081,155.978,152.638,-0.382616,0.0759804,25,2701,3
63.1207,4.20427,1.29812,-0.554138,-2.51355,64.5091,65.2875,62.8189,-1.03072,0.107648,25,2702,3
147.131,3.34271,3.00805,-0.179819,-1.99716,150.348,152.151,145.443,-0.295239,0.107648,25,2703,3
219.406,1.64056,2.20436,-0.140678,-1.05898,221.403,222.825,218.003,-0.159462,0.0379902,25,2704,3
263.365,1.05167,2.63454,-0.0259876,-0.679274,265.751,267.45,261.672,-0.0326347,0.0379902,25,2705,3
210.588,2.22119,4.39161,0.0611439,-1.43868,214.563,217.397,207.79,0.0256068,0.0538238,25,2706,3
252.93,1.31203,5.19645,0.19515,-0.85258,257.633,260.986,249.587,0.184598,0.0538238,25,2707,3
219.264,1.67537,2.134,-0.140678,-1.003,221.546,222.825,218.003,-0.159462,0.0379902,25,2708,3
263.194,1.07437,2.55007,-0.0259876,-0.642781,265.922,267.45,261.672,-0.0326347,0.0379902,25,2709,3
210.301,2.27272,4.25045,0.0611439,-1.35581,214.85,217.397,207.79,0.0256068,0.0538238,25,2710,3
252.59,1.34495,5.02859,0.19515,-0.799635,257.973,260.986,249.587,0.184598,0.0538238,25,2711,3
296.388,0.532461,2.94816,0.0572082,-0.344561,299.056,300.959,294.487,0.0557108,0.0189951,25,2712,3
318.451,0.140654,3.14631,0.1189,-0.0920121,321.298,323.328,316.421,0.118675,0.0189951,25,2713,3
284.786,0.542148,5.77069,0.280866,-0.356308,290.005,293.73,281.063,0.278459,0.0269119,25,2714,3
306.101,-0.0110824,6.12776,0.332781,0.000324998,311.641,315.597,302.148,0.330161,0.0269119,25,2715,3
296.195,0.544528,2.85318,0.0572082,-0.325154,299.249,300.959,294.487,0.0557108,0.0189951,25,2716,3
318.245,0.144733,3.04439,0.1189,-0.0854528,321.504,323.328,316.421,0.118675,0.0189951,25,2717,3
284.406,0.559349,5.58339,0.280866,-0.328647,290.385,293.73,281.063,0.278459,0.0269119,25,2718,3
305.696,-0.00519309,5.92803,0.332781,0.00979574,312.046,315.597,302.148,0.330161,0.0269119,25,2719,3
-209.471,2.64982,-9.96812,-1.84793,-1.70861,-218.495,-1.7565,-203.13,-224.927,0.620593,25,2720,3
-56.8841,5.62509,-2.74402,-1.14883,-3.62722,-59.3694,1.85108,-55.603,-63.6504,0.620593,25,2721,3
-170.299,3.79769,-19.4209,-1.57028,-2.44267,-187.899,-1.32493,-158.019,-200.425,0.873929,25,2722,3
-46.2882,7.7663,-5.29223,-1.09957,-5.00175,-51.0842,3.31703,-44.0323,-57.7567,0.873929,25,2723,3
-208.821,2.70439,-9.64794,-1.84793,-1.62086,-219.144,-1.7565,-203.13,-224.927,0.620593,25,2724,3
-56.7063,5.74106,-2.6563,-1.14883,-3.44071,-59.5473,1.85108,-55.603,-63.6504,0.620593,25,2725,3
-169.049,3.87044,-18.8042,-1.57028,-2.32567,-189.15,-1.32493,-158.019,-200.425,0.873929,25,2726,3
-45.9474,7.92088,-5.12417,-1.09957,-4.75317,-51.425,3.31703,-44.0323,-57.7567,0.873929,25,2727,3
57.2279,5.728,2.7489,-0.561027,-3.69354,59.7174,61.5015,56.577,-1.69426,0.310296,25,2728,3
133.378,4.66535,6.39535,-0.190504,-3.00835,139.17,143.296,129.557,-0.495453,0.310296,25,2729,3
46.577,7.9037,5.31176,-0.617072,-5.09034,51.3907,54.8893,45.5802,-3.11891,0.436965,25,2730,3
108.524,6.48514,12.3799,-0.329553,-4.17565,119.743,127.728,101.286,-1.07573,0.436965,25,2731,3
57.0495,5.84607,2.66094,-0.561027,-3.50367,59.8957,61.5015,56.577,-1.69426,0.310296,25,2732,3
132.963,4.76154,6.19055,-0.190504,-2.85366,139.585,143.296,129.557,-0.495453,0.310296,25,2733,3
46.235,8.06111,5.14308,-0.617072,-4.83721,51.7328,54.8893,45.5802,-3.11891,0.436965,25,2734,3
107.727,6.61333,11.9868,-0.329553,-3.9695,120.541,127.728,101.286,-1.07573,0.436965,25,2735,3
190.606,3.33517,9.10697,0.0540188,-2.15063,198.852,204.727,184.838,-0.054076,0.155148,25,2736,3
228.867,2.16018,10.8889,0.199484,-1.39293,238.725,245.751,221.881,0.159832,0.155148,25,2737,3
155.038,4.71044,17.6805,-0.167575,-3.03128,171.06,182.463,143.916,-0.448808,0.218482,25,2738,3
186.096,3.14395,21.2103,-0.100228,-2.02118,205.317,218.997,172.53,-0.214318,0.218482,25,2739,3
190.013,3.40395,8.81494,0.0540188,-2.04002,199.444,204.727,184.838,-0.054076,0.155148,25,2740,3
228.158,2.2047,10.5392,0.199484,-1.32133,239.434,245.751,221.881,0.159832,0.155148,25,2741,3
153.899,4.80205,17.1191,-0.167575,-2.88396,172.199,182.463,143.916,-0.448808,0.218482,25,2742,3
184.73,3.20327,20.5368,-0.100228,-1.92578,206.683,218.997,172.53,-0.214318,0.218482,25,2743,3
257.624,1.13991,12.2118,0.298733,-0.734982,268.678,276.558,249.754,0.288463,0.0775741,25,2744,3
276.84,0.383016,13.0825,0.363304,-0.246883,288.681,297.123,268.4,0.361281,0.0775741,25,2745,3
209.423,1.78412,23.8536,-0.0712697,-1.14441,231.04,246.424,194.075,-0.107996,0.109241,25,2746,3
225.002,0.775309,25.6107,-0.0626074,-0.494083,248.211,264.729,208.494,-0.0720732,0.109241,25,2747,3
256.827,1.16335,11.819,0.298733,-0.697278,269.474,276.558,249.754,0.288463,0.0775741,25,2748,3
275.986,0.390826,12.6613,0.363304,-0.234323,289.535,297.123,268.4,0.361281,0.0775741,25,2749,3
207.887,1.81548,23.0962,-0.0712697,-1.09397,232.576,246.424,194.075,-0.107996,0.109241,25,2750,3
223.352,0.78604,24.7975,-0.0626074,-0.476826,249.86,264.729,208.494,-0.0720732,0.109241,25,2751,3
-133.651,4.3617,-28.4278,-1.41578,-2.81797,-159.418,-1.02598,-115.708,-177.751,0.531966,25,2752,3
-36.3892,9.65199,-7.70635,-1.05601,-6.22852,-43.3735,4.93065,-33.4871,-52.2624,0.531966,25,2753,3
-104.233,5.02776,-35.602,-1.57626,-3.24046,-136.496,-0.853127,-81.9947,-159.458,0.5953,25,2754,3
-28.3274,10.6406,-9.6868,-1.1217,-6.85908,-37.1051,6.4507,-25.3872,-47.6177,0.5953,25,2755,3
-131.824,4.45649,-27.5269,-1.41578,-2.66553,-161.245,-1.02598,-115.708,-177.751,0.531966,25,2756,3
-35.8934,9.85515,-7.46184,-1.05601,-5.90181,-43.8694,4.93065,-33.4871,-52.2624,0.531966,25,2757,3
-101.94,5.13,-34.471,-1.57626,-3.07605,-138.789,-0.853127,-81.9947,-159.458,0.5953,25,2758,3
-27.703,10.8579,-9.37885,-1.1217,-6.50954,-37.7296,6.4507,-25.3872,-47.6177,0.5953,25,2759,3
36.627,9.84796,7.74061,-0.667099,-6.35487,43.6425,48.6346,35.8873,-4.91951,0.265983,25,2760,3
85.299,7.93877,18.0578,-0.440408,-5.12399,101.665,113.311,74.9484,-1.73549,0.265983,25,2761,3
28.544,10.8382,9.72461,-0.600064,-6.98652,37.3561,43.6282,28.485,-6.81318,0.29765,25,2762,3
66.4804,8.83285,22.6702,-0.295367,-5.69353,87.0234,101.645,54.0819,-2.51844,0.29765,25,2763,3
36.1291,10.0552,7.49507,-0.667099,-6.02168,44.1404,48.6346,35.8873,-4.91951,0.265983,25,2764,3
84.1377,8.1068,17.485,-0.440408,-4.85379,102.827,113.311,74.9484,-1.73549,0.265983,25,2765,3
27.9172,11.0596,9.4155,-0.600064,-6.63041,37.9829,43.6282,28.485,-6.81318,0.29765,25,2766,3
65.0193,9.01304,21.9497,-0.295367,-5.40376,88.4845,101.645,54.0819,-2.51844,0.29765,25,2767,3
121.787,5.56679,25.8283,-0.31911,-3.5948,145.197,161.854,105.572,-0.761153,0.132991,25,2768,3
146.084,3.50209,31.0415,-0.275319,-2.2638,174.22,194.238,126.218,-0.428484,0.132991,25,2769,3
94.9691,6.32553,32.3852,-0.13243,-4.07693,124.316,145.203,74.8942,-0.944825,0.148825,25,2770,3
113.976,4.1158,38.871,-0.0854123,-2.65239,149.201,174.271,89.2078,-0.387566,0.148825,25,2771,3
120.127,5.68621,25.0094,-0.31911,-3.40276,146.858,161.854,105.572,-0.761153,0.132991,25,2772,3
144.089,3.57928,30.0578,-0.275319,-2.13967,176.214,194.238,126.218,-0.428484,0.132991,25,2773,3
92.8823,6.4542,31.3561,-0.13243,-3.87001,126.403,145.203,74.8942,-0.944825,0.148825,25,2774,3
111.472,4.19923,37.6361,-0.0854123,-2.51823,151.705,174.271,89.2078,-0.387566,0.148825,25,2775,3
164.3,1.74127,34.9654,-0.262915,-1.12884,195.994,218.543,141.787,-0.298264,0.0664957,25,2776,3
176.443,0.462627,37.5892,-0.266031,-0.304785,210.516,234.756,152.209,-0.272065,0.0664957,25,2777,3
128.238,2.20197,43.7411,-0.0867472,-1.41877,167.877,196.088,100.107,-0.166436,0.0744125,25,2778,3
137.747,0.784389,46.9922,-0.112946,-0.505219,180.333,210.64,107.453,-0.12588,0.0744125,25,2779,3
162.054,1.78256,33.8577,-0.262915,-1.06242,198.24,218.543,141.787,-0.298264,0.0664957,25,2780,3
174.029,0.477968,36.3986,-0.266031,-0.280115,212.93,234.756,152.209,-0.272065,0.0664957,25,2781,3
125.421,2.24636,42.3517,-0.0867472,-1.34738,170.694,196.088,100.107,-0.166436,0.0744125,25,2782,3
134.721,0.800044,45.4998,-0.112946,-0.480045,183.359,210.64,107.453,-0.12588,0.0744125,25,2783,3
-80.302,5.35142,-41.4272,-1.54698,-3.45427,-117.844,-0.359558,-54.7708,-144.562,0.3214,25,2784,3
-21.8272,11.5693,-11.2611,-1.0902,-7.46303,-32.0315,8.43275,-19.497,-43.8846,0.3214,25,2785,3
-63.0155,5.75474,-45.6511,-1.57184,-3.71029,-104.383,0.482249,-35.6261,-133.826,0.337234,25,2786,3
-17.1974,12.1362,-12.3605,-0.96696,-7.82458,-28.398,10.3562,-15.778,-41.1406,0.337234,25,2787,3
-77.6335,5.46491,-40.1113,-1.54698,-3.27175,-120.512,-0.359558,-54.7708,-144.562,0.3214,25,2788,3
-21.1013,11.8103,-10.9031,-1.0902,-7.07534,-32.7574,8.43275,-19.497,-43.8846,0.3214,25,2789,3
-60.0733,5.87291,-44.2001,-1.57184,-3.52026,-107.325,0.482249,-35.6261,-133.826,0.337234,25,2790,3
-16.4007,12.3854,-11.9676,-0.96696,-7.42393,-29.1948,10.3562,-15.778,-41.1406,0.337234,25,2791,3
22.0219,11.7767,11.3086,-0.602168,-7.59681,32.2694,39.5631,23.2742,-9.14808,0.1607,25,2792,3
51.2736,9.55855,26.361,-0.324174,-6.16649,75.1612,92.1631,37.8487,-3.9012,0.1607,25,2793,3
17.1805,12.2391,12.5355,-0.440971,-7.89098,28.5396,36.6307,19.778,-11.1295,0.168617,25,2794,3
40.2279,9.88883,29.0849,-0.184687,-6.37554,66.5835,85.3423,26.8294,-5.54508,0.168617,25,2795,3
21.2931,12.0221,10.9492,-0.602168,-7.20219,32.9982,39.5631,23.2742,-9.14808,0.1607,25,2796,3
49.5747,9.75819,25.5232,-0.324174,-5.84543,76.86,92.1631,37.8487,-3.9012,0.1607,25,2797,3
16.3725,12.4904,12.137,-0.440971,-7.48679,29.3477,36.6307,19.778,-11.1295,0.168617,25,2798,3
38.3532,10.0918,28.1604,-0.184687,-6.04919,68.4581,85.3423,26.8294,-5.54508,0.168617,25,2799,3
73.2371,6.78191,37.6626,-0.177743,-4.3762,107.366,131.657,50.2832,-1.51472,0.0803501,25,2800,3
87.8589,4.33306,45.2241,-0.12683,-2.79753,128.841,158.009,59.1712,-0.606675,0.0803501,25,2801,3
57.5976,7.02804,41.4822,-0.0594784,-4.53103,95.1872,121.942,33.0485,-2.26519,0.0843085,25,2802,3
69.2132,4.5433,49.7493,-0.0218075,-2.92911,114.294,146.381,37.9567,-0.852026,0.0843085,25,2803,3
70.8103,6.92445,36.4658,-0.177743,-4.14697,109.793,131.657,50.2832,-1.51472,0.0803501,25,2804,3
84.9456,4.42549,43.7874,-0.12683,-2.64889,131.754,158.009,59.1712,-0.606675,0.0803501,25,2805,3
54.9239,7.17218,40.1637,-0.0594784,-4.29924,97.8609,121.942,33.0485,-2.26519,0.0843085,25,2806,3
66.0067,4.63649,48.168,-0.0218075,-2.77925,117.501,146.381,37.9567,-0.852026,0.0843085,25,2807,3
98.8005,2.22382,50.9166,-0.114366,-1.43807,144.943,177.781,66.0765,-0.22894,0.040175,25,2808,3
106.061,0.685578,54.7324,-0.123901,-0.446726,155.663,190.962,70.7779,-0.139739,0.040175,25,2809,3
77.9279,2.40555,55.9588,-0.0182073,-1.55097,128.636,164.727,42.0476,-0.229328,0.0421542,25,2810,3
83.7194,0.830312,60.1105,-0.0443346,-0.535953,138.19,176.959,44.9811,-0.075129,0.0421542,25,2811,3
95.5216,2.27334,49.2996,-0.114366,-1.35844,148.222,177.781,66.0765,-0.22894,0.040175,25,2812,3
102.538,0.70388,52.9947,-0.123901,-0.417294,159.186,190.962,70.7779,-0.139739,0.040175,25,2813,3
74.3214,2.45497,54.1803,-0.0182073,-1.4715,132.242,164.727,42.0476,-0.229328,0.0421542,25,2814,3
79.8457,0.847919,58.2002,-0.0443346,-0.507639,142.064,176.959,44.9811,-0.075129,0.0421542,25,2815,3
-49.3681,6.06735,-49.0245,-1.59538,-3.91306,-93.7926,1.87701,-21.2214,-125.412,0.174555,25,2816,3
-13.8591,12.6888,-13.1418,-1.12098,-8.18205,-25.7677,12.1169,-13.63,-39.2347,0.174555,25,2817,3
-40.0985,5.85864,-51.3344,-1.96392,-3.77805,-86.616,3.33661,-12.29,-119.725,0.178513,25,2818,3
-11.444,12.601,-13.9639,-2.8317,-8.12515,-24.0979,12.4143,-12.4406,-38.3473,0.178513,25,2819,3
-46.2086,6.19304,-47.4664,-1.59538,-3.71094,-96.9521,1.87701,-21.2214,-125.412,0.174555,25,2820,3
-13.012,12.9504,-12.7241,-1.12098,-7.76139,-26.6148,12.1169,-13.63,-39.2347,0.174555,25,2821,3
-36.79,5.97964,-49.7028,-1.96392,-3.58347,-89.9246,3.33661,-12.29,-119.725,0.178513,25,2822,3
-10.5442,12.8605,-13.5202,-2.8317,-7.70786,-24.9977,12.4143,-12.4406,-38.3473,0.178513,25,2823,3
13.1031,12.666,13.5876,-0.542244,-8.16767,25.4153,34.1849,17.1995,-13.4082,0.0872773,25,2824,3
31.4897,10.079,31.2514,-0.178736,-6.49959,59.8079,79.9641,18.9896,-7.83476,0.0872773,25,2825,3
10.3378,13.3557,13.9676,-2.82494,-8.6131,22.9927,32.0154,15.2756,-16.7854,0.0892564,25,2826,3
24.9686,11.0631,32.717,-1.82403,-7.13594,54.611,75.7153,14.5171,-12.4769,0.0892564,25,2827,3
12.227,12.9274,13.1556,-0.542244,-7.74733,26.2914,34.1849,17.1995,-13.4082,0.0872773,25,2828,3
29.4749,10.2872,30.2579,-0.178736,-6.16492,61.8228,79.9641,18.9896,-7.83476,0.0872773,25,2829,3
9.43585,13.6319,13.5228,-2.82494,-8.1689,23.8946,32.0154,15.2756,-16.7854,0.0892564,25,2830,3
22.8562,11.2931,31.6753,-1.82403,-6.76606,56.7233,75.7153,14.5171,-12.4769,0.0892564,25,2831,3
45.5665,7.02519,44.3905,-0.0263066,-4.53032,85.7907,114.421,20.4409,-3.531,0.0436386,25,2832,3
55.0653,4.45618,53.1123,-0.00575912,-2.87415,103.194,137.45,22.1539,-1.35048,0.0436386,25,2833,3
36.5576,7.68386,46.5973,-0.751755,-4.957,78.7761,108.833,12.8367,-7.08792,0.0446282,25,2834,3
45.0352,4.68438,55.5267,-0.216219,-3.02169,95.3468,131.16,12.0327,-3.02718,0.0446282,25,2835,3
42.7048,7.17028,42.9792,-0.0263066,-4.297,88.6524,114.421,20.4409,-3.531,0.0436386,25,2836,3
51.6419,4.54866,51.4241,-0.00575912,-2.72542,106.617,137.45,22.1539,-1.35048,0.0436386,25,2837,3
33.5492,7.84428,45.1137,-0.751755,-4.69902,81.7844,108.833,12.8367,-7.08792,0.0446282,25,2838,3
41.4526,4.78192,53.76,-0.216219,-2.86483,98.9294,131.16,12.0327,-3.02718,0.0446282,25,2839,3
62.2093,2.2978,59.6563,-0.00604522,-1.48355,116.268,154.746,24.0637,-0.338228,0.0218193,25,2840,3
66.9117,0.766989,64.0478,-0.0522838,-0.496046,124.951,166.259,25.6558,-0.105037,0.0218193,25,2841,3
51.8313,2.26284,62.0248,0.032471,-1.45899,108.036,148.037,12.4942,-0.631831,0.0223141,25,2842,3
56.4121,0.762549,66.2892,-0.138171,-0.49472,116.484,159.24,13.8722,-0.353987,0.0223141,25,2843,3
58.3643,2.34685,57.7602,-0.00604522,-1.40467,120.113,154.746,24.0637,-0.338228,0.0218193,25,2844,3
62.7846,0.784121,62.0125,-0.0522838,-0.468496,129.078,166.259,25.6558,-0.105037,0.0218193,25,2845,3
47.8335,2.30936,60.0533,0.032471,-1.38419,112.034,148.037,12.4942,-0.631831,0.0223141,25,2846,3
52.1424,0.780967,64.1837,-0.138171,-0.4651,120.754,159.24,13.8722,-0.353987,0.0223141,25,2847,3
-33.7522,4.94902,-52.7954,-2.4416,-3.19074,-81.6114,5.09622,-7.24401,-115.657,0.0922591,25,2848,3
-9.17551,11.067,-15.0087,-5.81057,-7.13586,-22.7803,10.9194,-11.0503,-37.6354,0.0922591,25,2849,3
-30.4209,3.84403,-53.3074,-2.38451,-2.47802,-78.7447,6.59699,-5.02629,-113.121,0.0932817,25,2850,3
-7.71697,8.30103,-15.6287,-7.54231,-5.3507,-21.884,8.50696,-9.22007,-36.4301,0.0932817,25,2851,3
-30.3639,5.05059,-51.1244,-2.4416,-3.02741,-84.9998,5.09622,-7.24401,-115.657,0.0922591,25,2852,3
-8.21176,11.2948,-14.5334,-5.81057,-6.76956,-23.744,10.9194,-11.0503,-37.6354,0.0922591,25,2853,3
-27,3.92264,-51.6204,-2.38451,-2.3516,-82.1656,6.59699,-5.02629,-113.121,0.0932817,25,2854,3
-6.71357,8.47035,-15.1338,-7.54231,-5.07841,-22.8874,8.50696,-9.22007,-36.4301,0.0932817,25,2855,3
9.54241,13.2605,13.0742,-8.80299,-8.55106,21.397,29.8303,12.7352,-20.429,0.0461296,25,2856,3
20.7193,13.3637,32.6694,-8.82122,-8.62061,50.3394,71.4186,11.9179,-21.0991,0.0461296,25,2857,3
10.4143,9.83946,11.6189,-14.6672,-6.33928,20.9491,28.4479,8.89482,-20.6464,0.0466408,25,2858,3
21.2868,11.4584,29.9694,-21.789,-7.37036,48.4653,67.8596,8.50862,-28.405,0.0466408,25,2859,3
8.70556,13.5342,12.6615,-8.80299,-8.11094,22.2338,29.8303,12.7352,-20.429,0.0461296,25,2860,3
18.6267,13.6422,31.6375,-8.82122,-8.17271,52.4319,71.4186,11.9179,-21.0991,0.0461296,25,2861,3
9.67043,10.0374,11.2521,-14.6672,-6.02095,21.693,28.4479,8.89482,-20.6464,0.0466408,25,2862,3
19.3724,11.6782,29.0253,-21.789,-7.01687,50.3797,67.8596,8.50862,-28.405,0.0466408,25,2863,3
28.4465,11.4484,48.0913,-6.07199,-7.39118,72.047,103.091,9.46139,-18.1307,0.0230648,25,2864,3
34.6551,7.55586,58.1921,-2.59873,-4.88735,87.4093,124.984,6.58933,-12.1073,0.0230648,25,2865,3
26.9114,14.3325,44.7653,-27.7074,-9.20109,67.5171,96.6849,7.30294,-37.2668,0.0233204,25,2866,3
27.6414,17.6675,56.2947,-29.4679,-11.3151,78.7046,116.044,5.96275,-45.1288,0.0233204,25,2867,3
25.3645,11.6925,46.5714,-6.07199,-6.99874,75.129,103.091,9.46139,-18.1307,0.0230648,25,2868,3
30.9227,7.7252,56.3514,-2.59873,-4.61502,91.1417,124.984,6.58933,-12.1073,0.0230648,25,2869,3
24.0591,14.5913,43.3587,-27.7074,-8.78488,70.3693,96.6849,7.30294,-37.2668,0.0233204,25,2870,3
24.0541,17.9624,54.5256,-29.4679,-10.841,82.2919,116.044,5.96275,-45.1288,0.0233204,25,2871,3
42.0316,3.29511,64.5175,-0.676695,-2.14491,100.509,142.169,5.59575,-5.90138,0.0115324,25,2872,3
47.133,1.73038,68.3606,-1.61754,-1.13032,109.1,153.284,8.77274,-7.44193,0.0115324,25,2873,3
24.4425,19.3004,67.2478,-26.5077,-12.3243,85.4292,131.149,6.07437,-53.8596,0.0116602,25,2874,3
20.5743,14.7264,76.0473,-20.0946,-9.32976,89.4839,142.955,6.59839,-59.5896,0.0116602,25,2875,3
37.8844,3.3811,62.4723,-0.676695,-2.00663,104.656,142.169,5.59575,-5.90138,0.0115324,25,2876,3
42.7437,1.77908,66.1961,-1.61754,-1.052,113.489,153.284,8.77274,-7.44193,0.0115324,25,2877,3
20.1478,19.5897,65.1299,-26.5077,-11.8591,89.724,131.149,6.07437,-53.8596,0.0116602,25,2878,3
15.6715,14.8809,73.6295,-20.0946,-9.08124,94.3867,142.955,6.59839,-59.5896,0.0116602,25,2879,3
-250.93,0.0991274,-0.0214814,-1.6153,-0.0959783,-250.932,-1.61517,-250.909,-250.952,0.00167713,25,2880,3
-68.2495,0.211274,-0.00587502,-1.10911,-0.204513,-68.2499,-0.183943,-68.2445,-69.1802,0.00167713,25,2881,3
-250.828,0.154977,-0.0516693,-1.61512,-0.150035,-250.832,-1.61482,-250.779,-250.882,0.00266631,25,2882,3
-68.2217,0.330069,-0.0141473,-1.10918,-0.319508,-68.2226,-0.170956,-68.2096,-69.173,0.00266631,25,2883,3
-250.929,0.102279,-0.0213903,-1.6153,-0.0926181,-250.933,-1.61518,-250.909,-250.952,0.00167713,25,2884,3
-68.2491,0.217917,-0.00584956,-1.10911,-0.197425,-68.2503,-0.183942,-68.2445,-69.1802,0.00167713,25,2885,3
-250.825,0.15985,-0.0514484,-1.61512,-0.144826,-250.835,-1.61482,-250.779,-250.882,0.00266631,25,2886,3
-68.2208,0.340411,-0.0140872,-1.10918,-0.30846,-68.2236,-0.170956,-68.2096,-69.173,0.00266631,25,2887,3
68.6233,0.215221,0.00588784,-0.607235,-0.208338,68.6237,68.6294,68.6192,-0.608877,0.000838566,25,2888,3
159.909,0.175067,0.013735,-0.305329,-0.169473,159.91,159.923,159.896,-0.305739,0.000838566,25,2889,3
68.5954,0.336455,0.0141813,-0.60706,-0.325678,68.5964,68.6101,68.5856,-0.611001,0.00133315,25,2890,3
159.844,0.273554,0.0330168,-0.30522,-0.264806,159.846,159.878,159.813,-0.306201,0.00133315,25,2891,3
68.6229,0.22199,0.00586261,-0.607236,-0.201116,68.6241,68.6294,68.6192,-0.608878,0.000838566,25,2892,3
159.908,0.180583,0.0136765,-0.305328,-0.163588,159.911,159.923,159.896,-0.305738,0.000838566,25,2893,3
68.5945,0.346986,0.0141209,-0.60706,-0.314428,68.5973,68.6101,68.5856,-0.611001,0.00133315,25,2894,3
159.842,0.28213,0.0328761,-0.305221,-0.255643,159.848,159.878,159.813,-0.306201,0.00133315,25,2895,3
228.429,0.124899,0.0196262,-0.128623,-0.120921,228.43,228.449,228.41,-0.128764,0.000419283,25,2896,3
274.153,0.0807747,0.0234965,-0.049571,-0.0782149,274.154,274.177,274.13,-0.0496223,0.000419283,25,2897,3
228.336,0.195124,0.0470645,-0.128872,-0.188895,228.339,228.385,228.291,-0.129207,0.000666576,25,2898,3
274.041,0.12631,0.0563996,-0.0502437,-0.122291,274.045,274.1,273.987,-0.0503645,0.000666576,25,2899,3
228.428,0.128853,0.0195422,-0.128623,-0.116703,228.431,228.449,228.41,-0.128763,0.000419283,25,2900,3
274.151,0.0833535,0.0233967,-0.0495691,-0.0754663,274.156,274.177,274.13,-0.0496204,0.000419283,25,2901,3
228.333,0.201252,0.0468639,-0.128872,-0.182345,228.342,228.385,228.291,-0.129207,0.000666576,25,2902,3
274.038,0.130289,0.0561588,-0.0502438,-0.118035,274.049,274.1,273.987,-0.0503645,0.000666576,25,2903,3
308.471,0.0427628,0.026341,-0.0128778,-0.0414217,308.472,308.498,308.445,-0.0128915,0.000209641,25,2904,3
331.365,0.0147625,0.0281506,-0.00186569,-0.0143156,331.367,331.394,331.338,-0.00186879,0.000209641,25,2905,3
308.345,0.0670328,0.0635272,-0.0137744,-0.06491,308.349,308.411,308.284,-0.0138053,0.000333288,25,2906,3
331.231,0.0229459,0.0680612,-0.00213514,-0.022238,331.235,331.301,331.165,-0.00214046,0.000333288,25,2907,3
308.469,0.0441489,0.0262242,-0.0128831,-0.0399396,308.474,308.498,308.445,-0.0128969,0.000209641,25,2908,3
331.363,0.0152726,0.0280362,-0.00186489,-0.013764,331.369,331.394,331.338,-0.00186798,0.000209641,25,2909,3
308.341,0.0691565,0.0632577,-0.013774,-0.0626375,308.354,308.411,308.284,-0.0138049,0.000333288,25,2910,3
331.226,0.0236933,0.067766,-0.00213332,-0.021439,331.24,331.301,331.165,-0.00213864,0.000333288,25,2911,3
-250.571,0.242598,-0.128083,-1.6158,-0.234835,-250.58,-1.61507,-250.448,-250.704,0.00830233,25,2912,3
-68.1514,0.518169,-0.0350902,-1.10928,-0.501537,-68.1537,-0.140948,-68.121,-69.1523,0.00830233,25,2913,3
-250.089,0.354835,-0.27101,-1.61445,-0.343668,-250.107,-1.61289,-249.828,-250.369,0.0122607,25,2914,3
-68.0198,0.756939,-0.0738626,-1.10793,-0.732893,-68.0246,-0.0848245,-67.9562,-69.1113,0.0122607,25,2915,3
-250.563,0.2502,-0.127534,-1.61581,-0.22672,-250.588,-1.61507,-250.448,-250.704,0.00830233,25,2916,3
-68.1491,0.534354,-0.0349404,-1.10928,-0.484257,-68.156,-0.140948,-68.121,-69.1523,0.00830233,25,2917,3
-250.071,0.36614,-0.269848,-1.61445,-0.331598,-250.125,-1.61289,-249.828,-250.369,0.0122607,25,2918,3
-68.015,0.78083,-0.0735475,-1.10793,-0.707385,-68.0294,-0.0848245,-67.9562,-69.1113,0.0122607,25,2919,3
68.5246,0.527617,0.0352756,-0.60705,-0.510695,68.527,68.5611,68.5003,-0.616817,0.00415116,25,2920,3
159.68,0.428893,0.0819246,-0.304829,-0.415138,159.685,159.764,159.603,-0.30726,0.00415116,25,2921,3
68.3928,0.77089,0.0740287,-0.608432,-0.746387,68.3977,68.4693,68.3418,-0.629114,0.00613036,25,2922,3
159.372,0.627518,0.172773,-0.306771,-0.60761,159.383,159.55,159.21,-0.311931,0.00613036,25,2923,3
68.5223,0.54411,0.0351248,-0.60705,-0.493086,68.5293,68.5611,68.5003,-0.616817,0.00415116,25,2924,3
159.674,0.442301,0.0815738,-0.304829,-0.400823,159.69,159.764,159.603,-0.30726,0.00415116,25,2925,3
68.388,0.795208,0.0737124,-0.608432,-0.720423,68.4025,68.4693,68.3418,-0.629114,0.00613036,25,2926,3
159.361,0.647351,0.172034,-0.306771,-0.586434,159.395,159.55,159.21,-0.311931,0.00613036,25,2927,3
228.102,0.305683,0.116731,-0.128335,-0.295887,228.11,228.223,227.99,-0.129164,0.00207558,25,2928,3
273.761,0.197853,0.1398,-0.0499424,-0.19151,273.77,273.905,273.626,-0.0502405,0.00207558,25,2929,3
227.661,0.448138,0.247135,-0.13139,-0.433965,227.678,227.917,227.424,-0.133158,0.00306518,25,2930,3
273.232,0.29029,0.296784,-0.052608,-0.281154,273.251,273.539,272.945,-0.053245,0.00306518,25,2931,3
228.094,0.315247,0.116231,-0.128335,-0.285677,228.117,228.223,227.99,-0.129164,0.00207558,25,2932,3
273.752,0.204041,0.139201,-0.0499424,-0.184904,273.779,273.905,273.626,-0.0502405,0.00207558,25,2933,3
227.645,0.462345,0.246079,-0.13139,-0.418796,227.694,227.917,227.424,-0.133158,0.00306518,25,2934,3
273.212,0.299538,0.295514,-0.052608,-0.27128,273.271,273.539,272.945,-0.053245,0.00306518,25,2935,3
308.03,0.105068,0.157215,-0.0136445,-0.101693,308.04,308.192,307.878,-0.0137202,0.00103779,25,2936,3
330.893,0.0359423,0.168395,-0.000887173,-0.0347902,330.903,331.067,330.729,-0.000899137,0.00103779,25,2937,3
307.437,0.152441,0.333506,-0.0138718,-0.14771,307.459,307.782,307.114,-0.0140302,0.00153259,25,2938,3
330.263,0.0489438,0.354733,0.00251104,-0.0475577,330.286,330.63,329.92,0.00248759,0.00153259,25,2939,3
308.02,0.108348,0.156541,-0.0136446,-0.0981914,308.05,308.192,307.878,-0.0137203,0.00103779,25,2940,3
330.881,0.0370668,0.16767,-0.000887275,-0.0335894,330.915,331.067,330.729,-0.000899239,0.00103779,25,2941,3
307.415,0.157363,0.332077,-0.0138718,-0.142454,307.481,307.782,307.114,-0.0140302,0.00153259,25,2942,3
330.24,0.0506569,0.353201,0.00251103,-0.0457286,330.309,330.63,329.92,0.00248759,0.00153259,25,2943,3
-248.949,0.530536,-0.609178,-1.61811,-0.513781,-248.989,-1.61457,-248.363,-249.579,0.0363966,25,2944,3
-67.7069,1.13124,-0.167208,-1.10822,-1.09519,-67.7179,0.0252236,-67.5627,-68.9956,0.0363966,25,2945,3
-246.875,0.741636,-1.22604,-1.63049,-0.71937,-246.955,-1.62348,-245.695,-248.142,0.0522301,25,2946,3
-67.1261,1.62437,-0.340517,-1.10017,-1.57381,-67.1485,0.21191,-66.8331,-68.7536,0.0522301,25,2947,3
-248.909,0.54738,-0.606556,-1.61811,-0.495797,-249.029,-1.61457,-248.363,-249.579,0.0363966,25,2948,3
-67.6961,1.16683,-0.166494,-1.10822,-1.05719,-67.7288,0.0252236,-67.5627,-68.9956,0.0363966,25,2949,3
-246.794,0.766335,-1.22075,-1.63049,-0.692999,-247.035,-1.62348,-245.695,-248.142,0.0522301,25,2950,3
-67.104,1.67668,-0.339069,-1.10017,-1.51796,-67.1706,0.21191,-66.8331,-68.7536,0.0522301,25,2951,3
68.0794,1.15073,0.167524,-0.60839,-1.11411,68.0903,68.2525,67.9639,-0.655077,0.0181983,25,2952,3
158.644,0.937122,0.388643,-0.306996,-0.907299,158.67,159.046,158.28,-0.318676,0.0181983,25,2953,3
67.5011,1.64982,0.339696,-0.612844,-1.5985,67.5234,67.8523,67.2683,-0.708879,0.0261151,25,2954,3
157.299,1.34307,0.78987,-0.314018,-1.30147,157.351,158.115,156.559,-0.338091,0.0261151,25,2955,3
68.0684,1.18699,0.166807,-0.60839,-1.0754,68.1013,68.2525,67.9639,-0.655077,0.0181983,25,2956,3
158.619,0.966647,0.386976,-0.306996,-0.875776,158.695,159.046,158.28,-0.318676,0.0181983,25,2957,3
67.479,1.70298,0.338244,-0.612844,-1.54174,67.5456,67.8523,67.2683,-0.708879,0.0261151,25,2958,3
157.248,1.38652,0.786489,-0.314018,-1.25508,157.402,158.115,156.559,-0.338091,0.0261151,25,2959,3
226.622,0.67089,0.555132,-0.133784,-0.649546,226.658,227.196,226.089,-0.13781,0.00909915,25,2960,3
271.984,0.436049,0.666727,-0.0542558,-0.422196,272.027,272.673,271.34,-0.0557191,0.00909915,25,2961,3
224.707,0.954215,1.12848,-0.132028,-0.924953,224.78,225.873,223.622,-0.140226,0.0130575,25,2962,3
269.709,0.60389,1.34634,-0.0379223,-0.585823,269.796,271.1,268.408,-0.0407428,0.0130575,25,2963,3
226.586,0.692034,0.552752,-0.133784,-0.626971,226.695,227.196,226.089,-0.13781,0.00909915,25,2964,3
271.94,0.449811,0.663864,-0.0542558,-0.407502,272.071,272.673,271.34,-0.0557191,0.00909915,25,2965,3
224.633,0.985381,1.12364,-0.132028,-0.891677,224.854,225.873,223.622,-0.140226,0.0130575,25,2966,3
269.62,0.624065,1.34054,-0.0379223,-0.564283,269.885,271.1,268.408,-0.0407428,0.0130575,25,2967,3
306.034,0.230567,0.74945,-0.0114495,-0.223303,306.083,306.808,305.309,-0.0118172,0.00454957,25,2968,3
328.759,0.0747642,0.800845,0.0132138,-0.0725446,328.811,329.587,327.984,0.013163,0.00454957,25,2969,3
303.508,0.297009,1.49917,0.0191474,-0.288826,303.605,305.057,302.057,0.0185404,0.00652877,25,2970,3
326.086,0.0704394,1.58632,0.0535294,-0.0696462,326.188,327.724,324.55,0.0534256,0.00652877,25,2971,3
305.985,0.237905,0.746223,-0.0114495,-0.215469,306.132,306.808,305.309,-0.0118172,0.00454957,25,2972,3
328.706,0.0772791,0.797374,0.0132138,-0.0698594,328.864,329.587,327.984,0.013163,0.00454957,25,2973,3
303.409,0.307633,1.49268,0.0191474,-0.277483,303.704,305.057,302.057,0.0185404,0.00652877,25,2974,3
325.98,0.0741041,1.5794,0.0535293,-0.0657335,326.294,327.724,324.55,0.0534256,0.00652877,25,2975,3
-242.076,1.09928,-2.64002,-1.65033,-1.06555,-242.247,-1.63431,-239.535,-244.803,0.151961,25,2976,3
-65.8074,2.36551,-0.730726,-1.09101,-2.291,-65.8555,0.536719,-65.1841,-68.1066,0.151961,25,2977,3
-233.498,1.44024,-5.2096,-1.83141,-1.40172,-233.833,-1.8016,-228.482,-238.879,0.215295,25,2978,3
-63.385,3.44006,-1.47878,-1.15179,-3.33693,-63.4816,1.01366,-62.1477,-66.8844,0.215295,25,2979,3
-241.901,1.13517,-2.62859,-1.65033,-1.02723,-242.421,-1.63431,-239.535,-244.803,0.151961,25,2980,3
-65.7599,2.4408,-0.72761,-1.09101,-2.21061,-65.903,0.536719,-65.1841,-68.1066,0.151961,25,2981,3
-233.151,1.49292,-5.18689,-1.83141,-1.34548,-234.179,-1.8016,-228.482,-238.879,0.215295,25,2982,3
-63.2882,3.55478,-1.47243,-1.15179,-3.21444,-63.5785,1.01366,-62.1477,-66.8844,0.215295,25,2983,3
66.1816,2.40559,0.728631,-0.621816,-2.32985,66.2292,66.9347,65.6886,-0.834277,0.0759804,25,2984,3
154.226,1.9626,1.69588,-0.328569,-1.90097,154.337,155.978,152.638,-0.382616,0.0759804,25,2985,3
63.7671,3.51605,1.4713,-0.554138,-3.41046,63.8628,65.2875,62.8189,-1.03072,0.107648,25,2986,3
148.629,2.79427,3.40948,-0.179819,-2.71191,148.85,152.151,145.443,-0.295239,0.107648,25,2987,3
66.1339,2.4822,0.725509,-0.621816,-2.24806,66.2769,66.9347,65.6886,-0.834277,0.0759804,25,2988,3
154.115,2.02526,1.6886,-0.328569,-1.83407,154.448,155.978,152.638,-0.382616,0.0759804,25,2989,3
63.6704,3.63311,1.46496,-0.554138,-3.28546,63.9595,65.2875,62.8189,-1.03072,0.107648,25,2990,3
148.404,2.88886,3.39476,-0.179819,-2.61092,149.075,152.151,145.443,-0.295239,0.107648,25,2991,3
220.326,1.40244,2.41863,-0.140678,-1.35869,220.484,222.825,218.003,-0.159462,0.0379902,25,2992,3
264.464,0.898945,2.89044,-0.0259876,-0.871393,264.652,267.45,261.672,-0.0326347,0.0379902,25,2993,3
212.42,1.89783,4.81801,0.0611439,-1.84437,212.731,217.397,207.79,0.0256068,0.0538238,25,2994,3
255.098,1.12049,5.70059,0.19515,-1.09216,255.465,260.986,249.587,0.184598,0.0538238,25,2995,3
220.167,1.4475,2.40822,-0.140678,-1.31057,220.642,222.825,218.003,-0.159462,0.0379902,25,2996,3
264.274,0.928321,2.87795,-0.0259876,-0.840029,264.842,267.45,261.672,-0.0326347,0.0379902,25,2997,3
212.101,1.96454,4.79714,0.0611439,-1.77314,213.05,217.397,207.79,0.0256068,0.0538238,25,2998,3
254.719,1.16311,5.67577,0.19515,-1.04666,255.844,260.986,249.587,0.184598,0.0538238,25,2999,3
297.618,0.455009,3.2343,0.0572082,-0.441818,297.826,300.959,294.487,0.0557108,0.0189951,25,3000,3
319.764,0.120001,3.45142,0.1189,-0.117684,319.985,323.328,316.421,0.118675,0.0189951,25,3001,3
287.193,0.462219,6.33011,0.280866,-0.45523,287.598,293.73,281.063,0.278459,0.0269119,25,3002,3
308.657,-0.010806,6.7214,0.332781,0.00248082,309.085,315.597,302.148,0.330161,0.0269119,25,3003,3
297.403,0.470631,3.22026,0.0572082,-0.425139,298.041,300.959,294.487,0.0557108,0.0189951,25,3004,3
319.534,0.125281,3.43635,0.1189,-0.112047,320.215,323.328,316.421,0.118675,0.0189951,25,3005,3
286.77,0.484486,6.30242,0.280866,-0.431456,288.021,293.73,281.063,0.278459,0.0269119,25,3006,3
308.206,-0.00318225,6.69186,0.332781,0.0106206,309.536,315.597,302.148,0.330161,0.0269119,25,3007,3
-213.629,2.26557,-10.9361,-1.84793,-2.19273,-214.337,-1.7565,-203.13,-224.927,0.620593,25,3008,3
-58.0288,4.80937,-3.01068,-1.14883,-4.65492,-58.2247,1.85108,-55.603,-63.6504,0.620593,25,3009,3
-178.401,3.24817,-21.3101,-1.57028,-3.13663,-179.797,-1.32493,-158.019,-200.425,0.873929,25,3010,3
-48.496,6.64128,-5.80706,-1.09957,-6.42077,-48.8764,3.31703,-44.0323,-57.7567,0.873929,25,3011,3
-212.906,2.33621,-10.8887,-1.84793,-2.11731,-215.059,-1.7565,-203.13,-224.927,0.620593,25,3012,3
-57.8309,4.9595,-2.99771,-1.14883,-4.49462,-58.4226,1.85108,-55.603,-63.6504,0.620593,25,3013,3
-177.01,3.34236,-21.219,-1.57028,-3.03607,-181.189,-1.32493,-158.019,-200.425,0.873929,25,3014,3
-48.1168,6.84138,-5.78221,-1.09957,-6.20712,-49.2556,3.31703,-44.0323,-57.7567,0.873929,25,3015,3
58.3746,4.89736,3.01599,-0.561027,-4.74005,58.5707,61.5015,56.577,-1.69426,0.310296,25,3016,3
136.046,3.98881,7.01667,-0.190504,-3.86071,136.502,143.296,129.557,-0.495453,0.310296,25,3017,3
48.7929,6.75875,5.82849,-0.617072,-6.53447,49.1748,54.8893,45.5802,-3.11891,0.436965,25,3018,3
113.689,5.5459,13.5842,-0.329553,-5.3606,114.579,127.728,101.286,-1.07573,0.436965,25,3019,3
58.1762,5.0502,3.00299,-0.561027,-4.57686,58.7691,61.5015,56.577,-1.69426,0.310296,25,3020,3
135.584,4.11333,6.98638,-0.190504,-3.72776,136.964,143.296,129.557,-0.495453,0.310296,25,3021,3
48.4124,6.96252,5.80354,-0.617072,-6.31691,49.5554,54.8893,45.5802,-3.11891,0.436965,25,3022,3
112.802,5.71185,13.5261,-0.329553,-5.18343,115.466,127.728,101.286,-1.07573,0.436965,25,3023,3
194.405,2.85152,9.99153,0.0540188,-2.75997,195.053,204.727,184.838,-0.054076,0.155148,25,3024,3
233.409,1.84692,11.9463,0.199484,-1.78759,234.183,245.751,221.881,0.159832,0.155148,25,3025,3
162.413,4.02856,19.4005,-0.167575,-3.892,163.685,182.463,143.916,-0.448808,0.218482,25,3026,3
194.944,2.68923,23.2737,-0.100228,-2.59569,196.469,218.997,172.53,-0.214318,0.218482,25,3027,3
193.746,2.94056,9.94835,0.0540188,-2.6649,195.711,204.727,184.838,-0.054076,0.155148,25,3028,3
232.62,1.90456,11.8945,0.199484,-1.72605,234.972,245.751,221.881,0.159832,0.155148,25,3029,3
161.147,4.14715,19.3174,-0.167575,-3.76538,164.951,182.463,143.916,-0.448808,0.218482,25,3030,3
193.425,2.76602,23.1741,-0.100228,-2.5137,197.988,218.997,172.53,-0.214318,0.218482,25,3031,3
262.718,0.974617,13.3974,0.298733,-0.943245,263.584,276.558,249.754,0.288463,0.0775741,25,3032,3
282.297,0.327492,14.3524,0.363304,-0.316862,283.224,297.123,268.4,0.361281,0.0775741,25,3033,3
219.374,1.52657,26.1741,-0.0712697,-1.47048,221.089,246.424,194.075,-0.107996,0.109241,25,3034,3
235.686,0.664021,28.1022,-0.0626074,-0.635845,237.527,264.729,208.494,-0.0720732,0.109241,25,3035,3
261.831,1.00497,13.3393,0.298733,-0.91084,264.47,276.558,249.754,0.288463,0.0775741,25,3036,3
281.347,0.337602,14.2901,0.363304,-0.306067,284.174,297.123,268.4,0.361281,0.0775741,25,3037,3
217.665,1.56718,26.0621,-0.0712697,-1.42713,222.798,246.424,194.075,-0.107996,0.109241,25,3038,3
233.851,0.677913,27.9819,-0.0626074,-0.621013,239.362,264.729,208.494,-0.0720732,0.109241,25,3039,3
-145.511,3.72813,-31.1942,-1.41578,-3.61475,-147.559,-1.02598,-115.708,-177.751,0.531966,25,3040,3
-39.6042,8.25141,-8.45613,-1.05601,-7.99185,-40.1586,4.93065,-33.4871,-52.2624,0.531966,25,3041,3
-119.086,4.29897,-39.0652,-1.57626,-4.15906,-121.644,-0.853127,-81.9947,-159.458,0.5953,25,3042,3
-32.3685,9.09797,-10.629,-1.1217,-8.80316,-33.064,6.4507,-25.3872,-47.6177,0.5953,25,3043,3
-143.478,3.85084,-31.061,-1.41578,-3.48373,-149.591,-1.02598,-115.708,-177.751,0.531966,25,3044,3
-39.0525,8.5144,-8.41997,-1.05601,-7.71105,-40.7103,4.93065,-33.4871,-52.2624,0.531966,25,3045,3
-116.534,4.43132,-38.8979,-1.57626,-4.01775,-124.196,-0.853127,-81.9947,-159.458,0.5953,25,3046,3
-31.6737,9.37934,-10.5834,-1.1217,-8.50274,-33.7588,6.4507,-25.3872,-47.6177,0.5953,25,3047,3
39.8562,8.41896,8.49375,-0.667099,-8.15401,40.4133,48.6346,35.8873,-4.91951,0.265983,25,3048,3
92.8323,6.78659,19.8148,-0.440408,-6.57431,94.1321,113.311,74.9484,-1.73549,0.265983,25,3049,3
32.6009,9.26692,10.6705,-0.600064,-8.9667,33.2992,43.6282,28.485,-6.81318,0.29765,25,3050,3
75.9377,7.55238,24.8753,-0.295367,-7.30733,77.566,101.645,54.0819,-2.51844,0.29765,25,3051,3
39.3022,8.68717,8.45744,-0.667099,-7.86763,40.9673,48.6346,35.8873,-4.91951,0.265983,25,3052,3
91.5402,7.0041,19.7301,-0.440408,-6.34208,95.4242,113.311,74.9484,-1.73549,0.265983,25,3053,3
31.9035,9.55358,10.6248,-0.600064,-8.66063,33.9966,43.6282,28.485,-6.81318,0.29765,25,3054,3
74.3122,7.78564,24.7688,-0.295367,-7.05829,79.1916,101.645,54.0819,-2.51844,0.29765,25,3055,3
132.562,4.75852,28.3415,-0.31911,-4.61176,134.422,161.854,105.572,-0.761153,0.132991,25,3056,3
159.033,2.99315,34.0622,-0.275319,-2.90353,161.27,194.238,126.218,-0.428484,0.132991,25,3057,3
108.479,5.40862,35.5353,-0.13243,-5.23264,110.806,145.203,74.8942,-0.944825,0.148825,25,3058,3
130.192,3.51926,42.6521,-0.0854123,-3.40438,132.985,174.271,89.2078,-0.387566,0.148825,25,3059,3
130.715,4.91311,28.2204,-0.31911,-4.44671,136.269,161.854,105.572,-0.761153,0.132991,25,3060,3
156.814,3.09307,33.9168,-0.275319,-2.79684,163.489,194.238,126.218,-0.428484,0.132991,25,3061,3
106.158,5.57518,35.3832,-0.13243,-5.0548,113.128,145.203,74.8942,-0.944825,0.148825,25,3062,3
127.406,3.62726,42.4695,-0.0854123,-3.28907,135.771,174.271,89.2078,-0.387566,0.148825,25,3063,3
178.887,1.48758,38.3681,-0.262915,-1.44685,181.407,218.543,141.787,-0.298264,0.0664957,25,3064,3
192.125,0.394277,41.2474,-0.266031,-0.389182,194.834,234.756,152.209,-0.272065,0.0664957,25,3065,3
146.486,1.88287,47.9961,-0.0867472,-1.82109,149.629,196.088,100.107,-0.166436,0.0744125,25,3066,3
157.351,0.670754,51.5636,-0.112946,-0.648538,160.729,210.64,107.453,-0.12588,0.0744125,25,3067,3
176.388,1.54104,38.2043,-0.262915,-1.38977,183.906,218.543,141.787,-0.298264,0.0664957,25,3068,3
189.439,0.414136,41.0713,-0.266031,-0.367979,197.52,234.756,152.209,-0.272065,0.0664957,25,3069,3
143.351,1.94033,47.7907,-0.0867472,-1.75974,152.764,196.088,100.107,-0.166436,0.0744125,25,3070,3
153.984,0.691019,51.3429,-0.112946,-0.626902,164.096,210.64,107.453,-0.12588,0.0744125,25,3071,3
-97.5843,4.5747,-45.4571,-1.54698,-4.43191,-100.561,-0.359558,-54.7708,-144.562,0.3214,25,3072,3
-26.525,9.891,-12.3564,-1.0902,-9.57668,-27.3337,8.43275,-19.497,-43.8846,0.3214,25,3073,3
-82.0599,4.92033,-50.0914,-1.57184,-4.76169,-85.3386,0.482249,-35.6261,-133.826,0.337234,25,3074,3
-22.3539,10.3765,-13.5628,-0.96696,-10.0419,-23.2415,10.3562,-15.778,-41.1406,0.337234,25,3075,3
-94.6154,4.72162,-45.2625,-1.54698,-4.27504,-103.53,-0.359558,-54.7708,-144.562,0.3214,25,3076,3
-25.7174,10.2031,-12.3035,-1.0902,-9.24347,-28.1413,8.43275,-19.497,-43.8846,0.3214,25,3077,3
-78.7863,5.0733,-49.8769,-1.57184,-4.59836,-88.6122,0.482249,-35.6261,-133.826,0.337234,25,3078,3
-21.4675,10.6991,-13.5047,-0.96696,-9.69754,-24.128,10.3562,-15.778,-41.1406,0.337234,25,3079,3
26.7395,10.0683,12.4085,-0.602168,-9.74835,27.5518,39.5631,23.2742,-9.14808,0.1607,25,3080,3
62.2707,8.17186,28.9251,-0.324174,-7.91278,64.1641,92.1631,37.8487,-3.9012,0.1607,25,3081,3
22.41,10.4644,13.7548,-0.440971,-10.1271,23.3102,36.6307,19.778,-11.1295,0.168617,25,3082,3
52.3613,8.45501,31.9138,-0.184687,-8.18225,54.4501,85.3423,26.8294,-5.54508,0.168617,25,3083,3
25.9287,10.386,12.3554,-0.602168,-9.40919,28.3626,39.5631,23.2742,-9.14808,0.1607,25,3084,3
60.3805,8.4303,28.8012,-0.324174,-7.63684,66.0542,92.1631,37.8487,-3.9012,0.1607,25,3085,3
21.511,10.7898,13.6958,-0.440971,-9.77968,24.2092,36.6307,19.778,-11.1295,0.168617,25,3086,3
50.2755,8.71772,31.7771,-0.184687,-7.90177,56.5358,85.3423,26.8294,-5.54508,0.168617,25,3087,3
88.9489,5.79784,41.326,-0.177743,-5.61519,91.6545,131.657,50.2832,-1.51472,0.0803501,25,3088,3
106.725,3.70403,49.6233,-0.12683,-3.58911,109.975,158.009,59.1712,-0.606675,0.0803501,25,3089,3
74.9028,6.00904,45.517,-0.0594784,-5.81507,77.882,121.942,33.0485,-2.26519,0.0843085,25,3090,3
89.9672,3.88456,54.5882,-0.0218075,-3.75919,93.5402,146.381,37.9567,-0.852026,0.0843085,25,3091,3
86.2488,5.98237,41.149,-0.177743,-5.41818,94.3546,131.657,50.2832,-1.51472,0.0803501,25,3092,3
103.484,3.82368,49.4108,-0.12683,-3.46136,113.216,158.009,59.1712,-0.606675,0.0803501,25,3093,3
71.9281,6.19563,45.322,-0.0594784,-5.61585,80.8567,121.942,33.0485,-2.26519,0.0843085,25,3094,3
86.3997,4.0052,54.3544,-0.0218075,-3.63038,97.1077,146.381,37.9567,-0.852026,0.0843085,25,3095,3
120.042,1.90053,55.8697,-0.114366,-1.84428,123.702,177.781,66.0765,-0.22894,0.040175,25,3096,3
128.894,0.585253,60.0569,-0.123901,-0.571892,132.83,190.962,70.7779,-0.139739,0.040175,25,3097,3
101.272,2.05675,61.4018,-0.0182073,-1.99047,105.291,164.727,42.0476,-0.229328,0.0421542,25,3098,3
108.796,0.709799,65.9574,-0.0443346,-0.68764,113.114,176.959,44.9811,-0.075129,0.0421542,25,3099,3
116.394,1.96464,55.6306,-0.114366,-1.77584,127.35,177.781,66.0765,-0.22894,0.040175,25,3100,3
124.974,0.608945,59.8,-0.123901,-0.546596,136.75,190.962,70.7779,-0.139739,0.040175,25,3101,3
97.2597,2.12072,61.1388,-0.0182073,-1.92217,109.304,164.727,42.0476,-0.229328,0.0421542,25,3102,3
104.486,0.732591,65.6749,-0.0443346,-0.663305,117.423,176.959,44.9811,-0.075129,0.0421542,25,3103,3
-69.8197,5.18737,-53.793,-1.59538,-5.02156,-73.341,1.87701,-21.2214,-125.412,0.174555,25,3104,3
-19.3415,10.8487,-14.4201,-1.12098,-10.5003,-20.2853,12.1169,-13.63,-39.2347,0.174555,25,3105,3
-61.5138,5.00901,-56.3276,-1.96392,-4.84842,-65.2007,3.33661,-12.29,-119.725,0.178513,25,3106,3
-17.2694,10.7738,-15.3222,-2.8317,-10.4274,-18.2725,12.4143,-12.4406,-38.3473,0.178513,25,3107,3
-66.3045,5.35008,-53.5626,-1.59538,-4.84784,-76.8562,1.87701,-21.2214,-125.412,0.174555,25,3108,3
-18.3991,11.1874,-14.3583,-1.12098,-10.1387,-21.2278,12.1169,-13.63,-39.2347,0.174555,25,3109,3
-57.8327,5.16565,-56.0863,-1.96392,-4.68118,-68.8818,3.33661,-12.29,-119.725,0.178513,25,3110,3
-16.2683,11.1097,-15.2566,-2.8317,-10.0687,-19.2736,12.4143,-12.4406,-38.3473,0.178513,25,3111,3
18.7714,10.8292,14.9092,-0.542244,-10.4818,19.747,34.1849,17.1995,-13.4082,0.0872773,25,3112,3
44.5269,8.61736,34.291,-0.178736,-8.34103,46.7707,79.9641,18.9896,-7.83476,0.0872773,25,3113,3
16.1647,11.4188,15.3258,-2.82494,-11.0532,17.1658,32.0154,15.2756,-16.7854,0.0892564,25,3114,3
38.617,9.45839,35.8984,-1.82403,-9.15713,40.9625,75.7153,14.5171,-12.4769,0.0892564,25,3115,3
17.7968,11.1676,14.8453,-0.542244,-10.1205,20.7216,34.1849,17.1995,-13.4082,0.0872773,25,3116,3
42.2853,8.88677,34.1441,-0.178736,-8.05338,49.0124,79.9641,18.9896,-7.83476,0.0872773,25,3117,3
15.1611,11.7763,15.26,-2.82494,-10.6714,18.1694,32.0154,15.2756,-16.7854,0.0892564,25,3118,3
36.2668,9.75613,35.7443,-1.82403,-8.83923,43.3127,75.7153,14.5171,-12.4769,0.0892564,25,3119,3
64.0849,6.00638,48.708,-0.0263066,-5.81381,67.2723,114.421,20.4409,-3.531,0.0436386,25,3120,3
77.2223,3.80983,58.2783,-0.00575912,-3.68828,81.0365,137.45,22.1539,-1.35048,0.0436386,25,3121,3
55.9964,6.56916,51.1284,-0.751755,-6.36079,59.3372,108.833,12.8367,-7.08792,0.0446282,25,3122,3
68.1992,4.00487,60.9267,-0.216219,-3.87751,72.1828,131.16,12.0327,-3.02718,0.0446282,25,3123,3
60.901,6.1942,48.4993,-0.0263066,-5.61328,70.4562,114.421,20.4409,-3.531,0.0436386,25,3124,3
73.4134,3.92955,58.0287,-0.00575912,-3.56045,84.8455,137.45,22.1539,-1.35048,0.0436386,25,3125,3
52.6493,6.77682,50.9091,-0.751755,-6.13908,62.6843,108.833,12.8367,-7.08792,0.0446282,25,3126,3
64.2132,4.13114,60.6654,-0.216219,-3.74269,76.1688,131.16,12.0327,-3.02718,0.0446282,25,3127,3
87.0963,1.96422,65.4589,-0.00604522,-1.90333,91.3808,154.746,24.0637,-0.338228,0.0218193,25,3128,3
93.6307,0.655477,70.2777,-0.0522838,-0.636147,98.2317,166.259,25.6558,-0.105037,0.0218193,25,3129,3
77.7063,1.93473,68.0577,0.032471,-1.87242,82.1608,148.037,12.4942,-0.631831,0.0223141,25,3130,3
84.0662,0.651382,72.7376,-0.138171,-0.63398,88.8303,159.24,13.8722,-0.353987,0.0223141,25,3131,3
82.8183,2.02772,65.1785,-0.00604522,-1.83553,95.6587,154.746,24.0637,-0.338228,0.0218193,25,3132,3
89.0389,0.677655,69.9767,-0.0522838,-0.612468,102.823,166.259,25.6558,-0.105037,0.0218193,25,3133,3
73.2584,1.99495,67.7662,0.032471,-1.80812,86.6087,148.037,12.4942,-0.631831,0.0223141,25,3134,3
79.3158,0.675225,72.4263,-0.138171,-0.608523,93.5808,159.24,13.8722,-0.353987,0.0223141,25,3135,3
-55.7777,4.23144,-57.934,-2.4416,-4.09494,-59.586,5.09622,-7.24401,-115.657,0.0922591,25,3136,3
-15.4369,9.46219,-16.4694,-5.81057,-9.15781,-16.5189,10.9194,-11.0503,-37.6354,0.0922591,25,3137,3
-52.66,3.28673,-58.496,-2.38451,-3.18034,-56.5056,6.59699,-5.02629,-113.121,0.0932817,25,3138,3
-14.237,7.09766,-17.1497,-7.54231,-6.86734,-15.3639,8.50696,-9.22007,-36.4301,0.0932817,25,3139,3
-52.0078,4.36292,-57.6869,-2.4416,-3.95456,-63.3559,5.09622,-7.24401,-115.657,0.0922591,25,3140,3
-14.3646,9.75706,-16.3991,-5.81057,-8.84298,-17.5912,10.9194,-11.0503,-37.6354,0.0922591,25,3141,3
-48.8539,3.38849,-58.2465,-2.38451,-3.07169,-60.3117,6.59699,-5.02629,-113.121,0.0932817,25,3142,3
-13.1206,7.31685,-17.0766,-7.54231,-6.63332,-16.4803,8.50696,-9.22007,-36.4301,0.0932817,25,3143,3
14.9969,11.3375,14.3473,-8.80299,-10.9738,15.9425,29.8303,12.7352,-20.429,0.0461296,25,3144,3
34.3487,11.4251,35.8501,-8.82122,-11.0621,36.71,71.4186,11.9179,-21.0991,0.0461296,25,3145,3
15.2616,8.41366,12.7502,-14.6672,-8.13706,16.1018,28.4479,8.89482,-20.6464,0.0466408,25,3146,3
33.79,9.80032,32.8885,-21.789,-9.46415,35.9621,67.8596,8.50862,-28.405,0.0466408,25,3147,3
14.0658,11.6918,14.2862,-8.80299,-10.5955,16.8736,29.8303,12.7352,-20.429,0.0461296,25,3148,3
32.0205,11.7856,35.6976,-8.82122,-10.6771,39.0382,71.4186,11.9179,-21.0991,0.0461296,25,3149,3
14.434,8.66991,12.696,-14.6672,-7.86346,16.9295,28.4479,8.89482,-20.6464,0.0466408,25,3150,3
31.66,10.0849,32.7489,-21.789,-9.16035,38.0921,67.8596,8.50862,-28.405,0.0466408,25,3151,3
48.5097,9.78649,52.7732,-6.07199,-9.48263,51.9839,103.091,9.46139,-18.1307,0.0230648,25,3152,3
58.932,6.4572,63.8565,-2.59873,-6.26752,63.1323,124.984,6.58933,-12.1073,0.0230648,25,3153,3
45.5878,12.2621,49.1273,-27.7074,-11.8204,48.8407,96.6849,7.30294,-37.2668,0.0233204,25,3154,3
51.1279,15.1206,61.78,-29.4679,-14.5445,55.2181,116.044,5.96275,-45.1288,0.0233204,25,3155,3
45.0807,10.1024,52.5484,-6.07199,-9.14535,55.4128,103.091,9.46139,-18.1307,0.0230648,25,3156,3
54.7794,6.67642,63.5844,-2.59873,-6.03346,67.285,124.984,6.58933,-12.1073,0.0230648,25,3157,3
42.4144,12.5971,48.9193,-27.7074,-11.4627,52.0141,96.6849,7.30294,-37.2668,0.0233204,25,3158,3
47.1367,15.5023,61.5184,-29.4679,-14.1369,59.2093,116.044,5.96275,-45.1288,0.0233204,25,3159,3
68.9471,2.81335,70.7955,-0.676695,-2.74654,73.5934,142.169,5.59575,-5.90138,0.0115324,25,3160,3
75.652,1.47662,75.0138,-1.61754,-1.44618,80.5808,153.284,8.77274,-7.44193,0.0115324,25,3161,3
52.4983,16.5252,73.7982,-26.5077,-15.8528,57.3734,131.149,6.07437,-53.8596,0.0116602,25,3162,3
52.2991,12.6233,83.4438,-20.0946,-12.0235,57.7591,142.955,6.59839,-59.5896,0.0116602,25,3163,3
64.3328,2.92466,70.4931,-0.676695,-2.62769,78.2076,142.169,5.59575,-5.90138,0.0115324,25,3164,3
70.7685,1.53966,74.6937,-1.61754,-1.37887,85.4643,153.284,8.77274,-7.44193,0.0115324,25,3165,3
47.72,16.8997,73.485,-26.5077,-15.4529,62.1517,131.149,6.07437,-53.8596,0.0116602,25,3166,3
46.8442,12.8233,83.0863,-20.0946,-11.8099,63.214,142.955,6.59839,-59.5896,0.0116602,25,3167,3
-250.927,0.105176,-0.021207,-1.6153,-0.0893145,-250.934,-1.61518,-250.909,-250.952,0.00167713,25,3168,3
-68.2488,0.22418,-0.00579885,-1.10911,-0.190283,-68.2507,-0.183942,-68.2445,-69.1802,0.00167713,25,3169,3
-250.822,0.164452,-0.0510053,-1.61512,-0.139579,-250.839,-1.61482,-250.779,-250.882,0.00266631,25,3170,3
-68.2199,0.350253,-0.0139658,-1.10918,-0.297237,-68.2245,-0.170956,-68.2096,-69.173,0.00266631,25,3171,3
-250.926,0.108096,-0.0209325,-1.6153,-0.0857517,-250.936,-1.61517,-250.909,-250.952,0.00167713,25,3172,3
-68.2484,0.23034,-0.00572449,-1.10911,-0.182772,-68.2511,-0.183943,-68.2445,-69.1802,0.00167713,25,3173,3
-250.818,0.16898,-0.050348,-1.61512,-0.134068,-250.842,-1.61482,-250.779,-250.882,0.00266631,25,3174,3
-68.219,0.359857,-0.0137858,-1.10918,-0.285541,-68.2254,-0.170956,-68.2096,-69.173,0.00266631,25,3175,3
68.6225,0.228371,0.00581214,-0.607236,-0.19384,68.6244,68.6294,68.6192,-0.608878,0.000838566,25,3176,3
159.907,0.185759,0.0135589,-0.305328,-0.157686,159.911,159.923,159.896,-0.305738,0.000838566,25,3177,3
68.5936,0.357029,0.0139992,-0.60706,-0.302977,68.5982,68.6101,68.5856,-0.611001,0.00133315,25,3178,3
159.839,0.290282,0.0325926,-0.305221,-0.246348,159.85,159.878,159.813,-0.306201,0.00133315,25,3179,3
68.6221,0.234648,0.00573725,-0.607235,-0.186186,68.6248,68.6294,68.6192,-0.608877,0.000838566,25,3180,3
159.906,0.190874,0.0133839,-0.305329,-0.151448,159.912,159.923,159.896,-0.305739,0.000838566,25,3181,3
68.5927,0.366808,0.0138189,-0.60706,-0.291067,68.5991,68.6101,68.5856,-0.611001,0.00133315,25,3182,3
159.837,0.298247,0.0321728,-0.30522,-0.23665,159.852,159.878,159.813,-0.306201,0.00133315,25,3183,3
228.426,0.132524,0.0193741,-0.128623,-0.112518,228.433,228.449,228.41,-0.128763,0.000419283,25,3184,3
274.15,0.0857005,0.0231958,-0.0495691,-0.0727901,274.157,274.177,274.13,-0.0496204,0.000419283,25,3185,3
228.33,0.207054,0.0464599,-0.128872,-0.17573,228.345,228.385,228.291,-0.129207,0.000666576,25,3186,3
274.034,0.134032,0.055675,-0.0502438,-0.113768,274.052,274.1,273.987,-0.0503645,0.000666576,25,3187,3
228.425,0.136189,0.0191242,-0.128623,-0.108047,228.434,228.449,228.41,-0.128764,0.000419283,25,3188,3
274.148,0.088089,0.0228957,-0.049571,-0.0698745,274.159,274.177,274.13,-0.0496223,0.000419283,25,3189,3
228.327,0.212748,0.0458614,-0.128872,-0.168799,228.348,228.385,228.291,-0.129207,0.000666576,25,3190,3
274.03,0.137731,0.0549575,-0.0502437,-0.109267,274.056,274.1,273.987,-0.0503645,0.000666576,25,3191,3
308.467,0.0453605,0.0259973,-0.0128831,-0.038558,308.476,308.498,308.445,-0.0128969,0.000209641,25,3192,3
331.361,0.0156398,0.0277981,-0.00186489,-0.0133453,331.37,331.394,331.338,-0.00186798,0.000209641,25,3193,3
308.337,0.0711283,0.0627129,-0.013774,-0.060389,308.358,308.411,308.284,-0.0138049,0.000333288,25,3194,3
331.222,0.0243482,0.0671847,-0.00213332,-0.0206923,331.244,331.301,331.165,-0.00213864,0.000333288,25,3195,3
308.466,0.046649,0.0256652,-0.0128778,-0.0369904,308.478,308.498,308.445,-0.0128915,0.000209641,25,3196,3
331.359,0.01612,0.027433,-0.00186569,-0.0127676,331.372,331.394,331.338,-0.00186879,0.000209641,25,3197,3
308.333,0.0731042,0.0619032,-0.0137744,-0.0579869,308.362,308.411,308.284,-0.0138053,0.000333288,25,3198,3
331.217,0.0250428,0.0663184,-0.00213514,-0.0198469,331.248,331.301,331.165,-0.00214046,0.000333288,25,3199,3
-250.555,0.257438,-0.126441,-1.61581,-0.218466,-250.596,-1.61507,-250.448,-250.704,0.00830233,25,3200,3
-68.1468,0.549861,-0.0346396,-1.10928,-0.466574,-68.1582,-0.140948,-68.121,-69.1523,0.00830233,25,3201,3
-250.054,0.376552,-0.267534,-1.61445,-0.319725,-250.142,-1.61289,-249.828,-250.369,0.0122607,25,3202,3
-68.0102,0.803252,-0.0729139,-1.10793,-0.681818,-68.0343,-0.0848245,-67.9562,-69.1113,0.0122607,25,3203,3
-250.547,0.264492,-0.124802,-1.6158,-0.209871,-250.605,-1.61507,-250.448,-250.704,0.00830233,25,3204,3
-68.1445,0.564881,-0.0341928,-1.10928,-0.448272,-68.1605,-0.140948,-68.121,-69.1523,0.00830233,25,3205,3
-250.036,0.387043,-0.26407,-1.61445,-0.306941,-250.16,-1.61289,-249.828,-250.369,0.0122607,25,3206,3
-68.0054,0.825424,-0.0719739,-1.10793,-0.654802,-68.039,-0.0848245,-67.9562,-69.1113,0.0122607,25,3207,3
68.52,0.559888,0.0348228,-0.60705,-0.475094,68.5316,68.5611,68.5003,-0.616817,0.00415116,25,3208,3
159.669,0.455126,0.0808738,-0.304829,-0.386199,159.696,159.764,159.603,-0.30726,0.00415116,25,3209,3
68.3832,0.818055,0.0730783,-0.608432,-0.694371,68.4073,68.4693,68.3418,-0.629114,0.00613036,25,3210,3
159.349,0.665914,0.170555,-0.306771,-0.565268,159.406,159.55,159.21,-0.311931,0.00613036,25,3211,3
68.5178,0.575193,0.0343731,-0.60705,-0.456444,68.5338,68.5611,68.5003,-0.616817,0.00415116,25,3212,3
159.664,0.467568,0.0798271,-0.304829,-0.371037,159.701,159.764,159.603,-0.30726,0.00415116,25,3213,3
68.3784,0.840623,0.0721348,-0.608432,-0.666872,68.412,68.4693,68.3418,-0.629114,0.00613036,25,3214,3
159.338,0.68432,0.168352,-0.306771,-0.54284,159.417,159.55,159.21,-0.311931,0.00613036,25,3215,3
228.087,0.324381,0.115234,-0.128335,-0.275262,228.125,228.223,227.99,-0.129164,0.00207558,25,3216,3
273.743,0.209955,0.138007,-0.0499424,-0.17816,273.788,273.905,273.626,-0.0502405,0.00207558,25,3217,3
227.629,0.475561,0.243963,-0.13139,-0.403726,227.71,227.917,227.424,-0.133158,0.00306518,25,3218,3
273.193,0.308057,0.292975,-0.052608,-0.261566,273.29,273.539,272.945,-0.053245,0.00306518,25,3219,3
228.079,0.333256,0.113742,-0.128335,-0.264447,228.132,228.223,227.99,-0.129164,0.00207558,25,3220,3
273.734,0.215697,0.13622,-0.0499424,-0.171163,273.797,273.905,273.626,-0.0502405,0.00207558,25,3221,3
227.613,0.488746,0.240812,-0.13139,-0.387661,227.726,227.917,227.424,-0.133158,0.00306518,25,3222,3
273.174,0.316639,0.289189,-0.052608,-0.251109,273.309,273.539,272.945,-0.053245,0.00306518,25,3223,3
308.009,0.111494,0.155199,-0.0136446,-0.094604,308.061,308.192,307.878,-0.0137203,0.00103779,25,3224,3
330.871,0.0381402,0.166239,-0.000887275,-0.0323654,330.925,331.067,330.729,-0.000899239,0.00103779,25,3225,3
307.394,0.161775,0.329229,-0.0138718,-0.137423,307.502,307.782,307.114,-0.0140302,0.00153259,25,3226,3
330.217,0.0519494,0.350195,0.00251103,-0.0442548,330.332,330.63,329.92,0.00248759,0.00153259,25,3227,3
307.999,0.114537,0.153189,-0.0136445,-0.090895,308.071,308.192,307.878,-0.0137202,0.00103779,25,3228,3
330.86,0.039184,0.164076,-0.000887173,-0.0310937,330.936,331.067,330.729,-0.000899137,0.00103779,25,3229,3
307.372,0.166343,0.324966,-0.0138718,-0.131857,307.524,307.782,307.114,-0.0140302,0.00153259,25,3230,3
330.194,0.0535393,0.345626,0.00251104,-0.0423176,330.355,330.63,329.92,0.00248759,0.00153259,25,3231,3
-248.87,0.563003,-0.601377,-1.61811,-0.477983,-249.068,-1.61457,-248.363,-249.579,0.0363966,25,3232,3
-67.6852,1.20044,-0.16506,-1.10822,-1.01886,-67.7397,0.0252236,-67.5627,-68.9956,0.0363966,25,3233,3
-246.715,0.787097,-1.21036,-1.63049,-0.669324,-247.114,-1.62348,-245.695,-248.142,0.0522301,25,3234,3
-67.0817,1.72382,-0.336139,-1.10017,-1.4642,-67.1929,0.21191,-66.8331,-68.7536,0.0522301,25,3235,3
-248.83,0.578635,-0.593556,-1.61811,-0.458935,-249.107,-1.61457,-248.363,-249.579,0.0363966,25,3236,3
-67.6745,1.23348,-0.162932,-1.10822,-0.978608,-67.7504,0.0252236,-67.5627,-68.9956,0.0363966,25,3237,3
-246.636,0.810018,-1.19457,-1.63049,-0.641395,-247.194,-1.62348,-245.695,-248.142,0.0522301,25,3238,3
-67.06,1.77237,-0.33182,-1.10017,-1.40505,-67.2146,0.21191,-66.8331,-68.7536,0.0522301,25,3239,3
68.0576,1.22113,0.165375,-0.60839,-1.03647,68.1122,68.2525,67.9639,-0.655077,0.0181983,25,3240,3
158.594,0.994456,0.383661,-0.306996,-0.844065,158.72,159.046,158.28,-0.318676,0.0181983,25,3241,3
67.4569,1.75084,0.335335,-0.612844,-1.48718,67.5677,67.8523,67.2683,-0.708879,0.0261151,25,3242,3
157.196,1.42532,0.779736,-0.314018,-1.21084,157.454,158.115,156.559,-0.338091,0.0261151,25,3243,3
68.0468,1.25478,0.163236,-0.60839,-0.995463,68.1229,68.2525,67.9639,-0.655077,0.0181983,25,3244,3
158.569,1.02186,0.378687,-0.306996,-0.810679,158.745,159.046,158.28,-0.318676,0.0181983,25,3245,3
67.4351,1.80017,0.331004,-0.612844,-1.42706,67.5894,67.8523,67.2683,-0.708879,0.0261151,25,3246,3
157.146,1.46564,0.769651,-0.314018,-1.16171,157.504,158.115,156.559,-0.338091,0.0261151,25,3247,3
226.55,0.711936,0.548015,-0.133784,-0.604277,226.73,227.196,226.089,-0.13781,0.00909915,25,3248,3
271.897,0.462728,0.658181,-0.0542558,-0.392773,272.114,272.673,271.34,-0.0557191,0.00909915,25,3249,3
224.56,1.01267,1.114,-0.132028,-0.860564,224.927,225.873,223.622,-0.140226,0.0130575,25,3250,3
269.533,0.640912,1.3291,-0.0379223,-0.545073,269.972,271.1,268.408,-0.0407428,0.0130575,25,3251,3
226.514,0.731558,0.540913,-0.133784,-0.580367,226.766,227.196,226.089,-0.13781,0.00909915,25,3252,3
271.854,0.4755,0.649643,-0.0542558,-0.377211,272.157,272.673,271.34,-0.0557191,0.00909915,25,3253,3
224.487,1.04159,1.09958,-0.132028,-0.825321,225,225.873,223.622,-0.140226,0.0130575,25,3254,3
269.446,0.659635,1.31181,-0.0379223,-0.522259,270.059,271.1,268.408,-0.0407428,0.0130575,25,3255,3
305.936,0.244678,0.739854,-0.0114495,-0.207745,306.18,306.808,305.309,-0.0118172,0.00454957,25,3256,3
328.655,0.0793487,0.790614,0.0132138,-0.0674995,328.915,329.587,327.984,0.013163,0.00454957,25,3257,3
303.313,0.315263,1.48001,0.0191474,-0.268782,303.801,305.057,302.057,0.0185404,0.00652877,25,3258,3
325.879,0.0748436,1.56611,0.0535293,-0.0648902,326.395,327.724,324.55,0.0534256,0.00652877,25,3259,3
305.888,0.251488,0.730227,-0.0114495,-0.199448,306.229,306.808,305.309,-0.0118172,0.00454957,25,3260,3
328.603,0.0816826,0.780259,0.0132138,-0.0646556,328.967,329.587,327.984,0.013163,0.00454957,25,3261,3
303.216,0.325122,1.46065,0.0191474,-0.256769,303.898,305.057,302.057,0.0185404,0.00652877,25,3262,3
325.776,0.0782446,1.54545,0.0535294,-0.0607461,326.498,327.724,324.55,0.0534256,0.00652877,25,3263,3
-241.732,1.16661,-2.60628,-1.65033,-0.991376,-242.591,-1.63431,-239.535,-244.803,0.151961,25,3264,3
-65.7123,2.51028,-0.721338,-1.09101,-2.13138,-65.9507,0.536719,-65.1841,-68.1066,0.151961,25,3265,3
-232.819,1.52884,-5.14316,-1.83141,-1.30453,-234.511,-1.8016,-228.482,-238.879,0.215295,25,3266,3
-63.1924,3.65094,-1.45983,-1.15179,-3.1048,-63.6742,1.01366,-62.1477,-66.8844,0.215295,25,3267,3
-241.561,1.19992,-2.57219,-1.65033,-0.950789,-242.762,-1.63431,-239.535,-244.803,0.151961,25,3268,3
-65.6655,2.58016,-0.712044,-1.09101,-2.04624,-65.9974,0.536719,-65.1841,-68.1066,0.151961,25,3269,3
-232.479,1.57772,-5.07544,-1.83141,-1.24496,-234.852,-1.8016,-228.482,-238.879,0.215295,25,3270,3
-63.0972,3.7574,-1.44089,-1.15179,-2.97507,-63.7694,1.01366,-62.1477,-66.8844,0.215295,25,3271,3
66.0867,2.55282,0.719285,-0.621816,-2.16753,66.3241,66.9347,65.6886,-0.834277,0.0759804,25,3272,3
154.005,2.08273,1.67414,-0.328569,-1.76854,154.557,155.978,152.638,-0.382616,0.0759804,25,3273,3
63.5754,3.73157,1.45247,-0.554138,-3.17319,64.0544,65.2875,62.8189,-1.03072,0.107648,25,3274,3
148.185,2.96565,3.36586,-0.179819,-2.52335,149.294,152.151,145.443,-0.295239,0.107648,25,3275,3
66.0398,2.62391,0.709974,-0.621816,-2.0809,66.3709,66.9347,65.6886,-0.834277,0.0759804,25,3276,3
153.896,2.14087,1.65243,-0.328569,-1.69769,154.667,155.978,152.638,-0.382616,0.0759804,25,3277,3
63.4804,3.84021,1.43356,-0.554138,-3.04081,64.1495,65.2875,62.8189,-1.03072,0.107648,25,3278,3
147.964,3.05343,3.32196,-0.179819,-2.41639,149.515,152.151,145.443,-0.295239,0.107648,25,3279,3
220.011,1.4883,2.38765,-0.140678,-1.26405,220.799,222.825,218.003,-0.159462,0.0379902,25,3280,3
264.088,0.954012,2.85348,-0.0259876,-0.810734,265.028,267.45,261.672,-0.0326347,0.0379902,25,3281,3
211.792,2.0144,4.75645,0.0611439,-1.71629,213.359,217.397,207.79,0.0256068,0.0538238,25,3282,3
254.356,1.18952,5.62788,0.19515,-1.01654,256.207,260.986,249.587,0.184598,0.0538238,25,3283,3
219.855,1.53012,2.35661,-0.140678,-1.21309,220.955,222.825,218.003,-0.159462,0.0379902,25,3284,3
263.9,0.981274,2.81622,-0.0259876,-0.777515,265.216,267.45,261.672,-0.0326347,0.0379902,25,3285,3
211.479,2.07631,4.69418,0.0611439,-1.64086,213.672,217.397,207.79,0.0256068,0.0538238,25,3286,3
253.983,1.22907,5.55383,0.19515,-0.968345,256.58,260.986,249.587,0.184598,0.0538238,25,3287,3
297.196,0.482931,3.19301,0.0572082,-0.411113,298.248,300.959,294.487,0.0557108,0.0189951,25,3288,3
319.314,0.127441,3.40743,0.1189,-0.109584,320.435,323.328,316.421,0.118675,0.0189951,25,3289,3
286.368,0.491003,6.2495,0.280866,-0.424024,288.423,293.73,281.063,0.278459,0.0269119,25,3290,3
307.781,-0.0109451,6.63593,0.332781,0.00176876,309.961,315.597,302.148,0.330161,0.0269119,25,3291,3
296.986,0.497429,3.15111,0.0572082,-0.393448,298.458,300.959,294.487,0.0557108,0.0189951,25,3292,3
319.088,0.132341,3.36248,0.1189,-0.103613,320.661,323.328,316.421,0.118675,0.0189951,25,3293,3
285.953,0.511667,6.16688,0.280866,-0.398845,288.838,293.73,281.063,0.278459,0.0269119,25,3294,3
307.338,-0.00387006,6.54783,0.332781,0.0103898,310.404,315.597,302.148,0.330161,0.0269119,25,3295,3
-212.204,2.40414,-10.7963,-1.84793,-2.03986,-215.761,-1.7565,-203.13,-224.927,0.620593,25,3296,3
-57.6367,5.10352,-2.97214,-1.14883,-4.33041,-58.6168,1.85108,-55.603,-63.6504,0.620593,25,3297,3
-175.626,3.44636,-21.0367,-1.57028,-2.91747,-182.573,-1.32493,-158.019,-200.425,0.873929,25,3298,3
-47.7396,7.047,-5.73255,-1.09957,-5.97266,-49.6328,3.31703,-44.0323,-57.7567,0.873929,25,3299,3
-211.494,2.46969,-10.6551,-1.84793,-1.95998,-216.471,-1.7565,-203.13,-224.927,0.620593,25,3300,3
-57.4422,5.24284,-2.93344,-1.14883,-4.16063,-58.8114,1.85108,-55.603,-63.6504,0.620593,25,3301,3
-174.258,3.53377,-20.7647,-1.57028,-2.81097,-183.94,-1.32493,-158.019,-200.425,0.873929,25,3302,3
-47.3669,7.2327,-5.65842,-1.09957,-5.74638,-50.0054,3.31703,-44.0323,-57.7567,0.873929,25,3303,3
57.9818,5.19689,2.97739,-0.561027,-4.4096,58.9635,61.5015,56.577,-1.69426,0.310296,25,3304,3
135.132,4.23277,6.9269,-0.190504,-3.59157,137.416,143.296,129.557,-0.495453,0.310296,25,3305,3
48.0338,7.17166,5.75371,-0.617072,-6.07844,49.9339,54.8893,45.5802,-3.11891,0.436965,25,3306,3
111.92,5.88463,13.4099,-0.329553,-4.98641,116.348,127.728,101.286,-1.07573,0.436965,25,3307,3
57.7867,5.33873,2.9386,-0.561027,-4.23676,59.1585,61.5015,56.577,-1.69426,0.310296,25,3308,3
134.678,4.34833,6.83656,-0.190504,-3.45076,137.87,143.296,129.557,-0.495453,0.310296,25,3309,3
47.6597,7.36076,5.6793,-0.617072,-5.84801,50.308,54.8893,45.5802,-3.11891,0.436965,25,3310,3
111.048,6.03863,13.2365,-0.329553,-4.79876,117.22,127.728,101.286,-1.07573,0.436965,25,3311,3
193.103,3.02592,9.86376,0.0540188,-2.56756,196.354,204.727,184.838,-0.054076,0.155148,25,3312,3
231.853,1.95988,11.7936,0.199484,-1.66297,235.739,245.751,221.881,0.159832,0.155148,25,3313,3
159.887,4.27448,19.1515,-0.167575,-3.62019,166.211,182.463,143.916,-0.448808,0.218482,25,3314,3
191.913,2.85324,22.9751,-0.100228,-2.41425,199.5,218.997,172.53,-0.214318,0.218482,25,3315,3
192.456,3.10855,9.73495,0.0540188,-2.46688,197.002,204.727,184.838,-0.054076,0.155148,25,3316,3
231.078,2.01337,11.6393,0.199484,-1.59779,236.514,245.751,221.881,0.159832,0.155148,25,3317,3
158.642,4.38454,18.9039,-0.167575,-3.48608,167.456,182.463,143.916,-0.448808,0.218482,25,3318,3
190.419,2.9245,22.678,-0.100228,-2.32741,200.994,218.997,172.53,-0.214318,0.218482,25,3319,3
260.973,1.03422,13.2262,0.298733,-0.877482,265.329,276.558,249.754,0.288463,0.0775741,25,3320,3
280.428,0.347514,14.1691,0.363304,-0.294764,285.093,297.123,268.4,0.361281,0.0775741,25,3321,3
215.965,1.61948,25.8383,-0.0712697,-1.36749,224.498,246.424,194.075,-0.107996,0.109241,25,3322,3
232.026,0.704185,27.7416,-0.0626074,-0.591055,241.187,264.729,208.494,-0.0720732,0.109241,25,3323,3
260.102,1.06239,13.053,0.298733,-0.843161,266.2,276.558,249.754,0.288463,0.0775741,25,3324,3
279.494,0.356897,13.9833,0.363304,-0.283331,286.028,297.123,268.4,0.361281,0.0775741,25,3325,3
214.285,1.65716,25.5042,-0.0712697,-1.32158,226.178,246.424,194.075,-0.107996,0.109241,25,3326,3
230.222,0.717077,27.3829,-0.0626074,-0.575346,242.99,264.729,208.494,-0.0720732,0.109241,25,3327,3
-141.448,3.95656,-30.7937,-1.41578,-3.36318,-151.622,-1.02598,-115.708,-177.751,0.531966,25,3328,3
-38.5028,8.75643,-8.3476,-1.05601,-7.43507,-41.26,4.93065,-33.4871,-52.2624,0.531966,25,3329,3
-113.997,4.56178,-38.564,-1.57626,-3.86899,-126.732,-0.853127,-81.9947,-159.458,0.5953,25,3330,3
-30.9841,9.65425,-10.4926,-1.1217,-8.18927,-34.4484,6.4507,-25.3872,-47.6177,0.5953,25,3331,3
-139.45,4.07044,-30.3963,-1.41578,-3.22442,-153.619,-1.02598,-115.708,-177.751,0.531966,25,3332,3
-37.9606,9.0005,-8.23974,-1.05601,-7.13767,-41.8022,4.93065,-33.4871,-52.2624,0.531966,25,3333,3
-111.489,4.68461,-38.0651,-1.57626,-3.71933,-129.24,-0.853127,-81.9947,-159.458,0.5953,25,3334,3
-30.3012,9.91537,-10.3568,-1.1217,-7.87109,-35.1313,6.4507,-25.3872,-47.6177,0.5953,25,3335,3
38.7499,8.93423,8.38473,-0.667099,-7.58592,41.5196,48.6346,35.8873,-4.91951,0.265983,25,3336,3
90.2516,7.20204,19.5604,-0.440408,-6.11637,96.7129,113.311,74.9484,-1.73549,0.265983,25,3337,3
31.2111,9.83353,10.5336,-0.600064,-8.34141,34.689,43.6282,28.485,-6.81318,0.29765,25,3338,3
72.6978,8.01413,24.5562,-0.295367,-6.79774,80.8059,101.645,54.0819,-2.51844,0.29765,25,3339,3
38.2054,9.18314,8.27642,-0.667099,-7.28262,42.0641,48.6346,35.8873,-4.91951,0.265983,25,3340,3
88.9815,7.4039,19.3078,-0.440408,-5.87041,97.9829,113.311,74.9484,-1.73549,0.265983,25,3341,3
30.5256,10.0996,10.3973,-0.600064,-8.01726,35.3745,43.6282,28.485,-6.81318,0.29765,25,3342,3
71.1001,8.2306,24.2384,-0.295367,-6.53397,82.4037,101.645,54.0819,-2.51844,0.29765,25,3343,3
128.871,5.04995,27.9777,-0.31911,-4.29066,138.113,161.854,105.572,-0.761153,0.132991,25,3344,3
154.597,3.17664,33.6249,-0.275319,-2.70155,165.706,194.238,126.218,-0.428484,0.132991,25,3345,3
103.851,5.73927,35.0795,-0.13243,-4.8677,115.434,145.203,74.8942,-0.944825,0.148825,25,3346,3
124.637,3.73439,42.105,-0.0854123,-3.16692,138.54,174.271,89.2078,-0.387566,0.148825,25,3347,3
127.055,5.19342,27.6165,-0.31911,-4.11585,139.929,161.854,105.572,-0.761153,0.132991,25,3348,3
152.416,3.26937,33.191,-0.275319,-2.58856,167.888,194.238,126.218,-0.428484,0.132991,25,3349,3
101.569,5.89384,34.6256,-0.13243,-4.67935,117.716,145.203,74.8942,-0.944825,0.148825,25,3350,3
121.898,3.83461,41.5602,-0.0854123,-3.0448,141.279,174.271,89.2078,-0.387566,0.148825,25,3351,3
173.89,1.57903,37.8754,-0.262915,-1.34646,186.404,218.543,141.787,-0.298264,0.0664957,25,3352,3
186.753,0.418887,40.7177,-0.266031,-0.362562,200.206,234.756,152.209,-0.272065,0.0664957,25,3353,3
140.234,1.99795,47.3803,-0.0867472,-1.69404,155.881,196.088,100.107,-0.166436,0.0744125,25,3354,3
150.635,0.711734,50.902,-0.112946,-0.60328,167.445,210.64,107.453,-0.12588,0.0744125,25,3355,3
171.434,1.62864,37.3868,-0.262915,-1.28601,188.861,218.543,141.787,-0.298264,0.0664957,25,3356,3
184.112,0.437316,40.1925,-0.266031,-0.340106,202.847,234.756,152.209,-0.272065,0.0664957,25,3357,3
137.153,2.05127,46.7675,-0.0867472,-1.62907,158.961,196.088,100.107,-0.166436,0.0744125,25,3358,3
147.326,0.730541,50.2437,-0.112946,-0.580364,170.754,210.64,107.453,-0.12588,0.0744125,25,3359,3
-91.6637,4.85476,-44.8739,-1.54698,-4.12322,-106.482,-0.359558,-54.7708,-144.562,0.3214,25,3360,3
-24.9156,10.4962,-12.1979,-1.0902,-8.90927,-28.9431,8.43275,-19.497,-43.8846,0.3214,25,3361,3
-75.5357,5.22122,-49.4489,-1.57184,-4.42969,-91.8628,0.482249,-35.6261,-133.826,0.337234,25,3362,3
-20.5874,11.0111,-13.3888,-0.96696,-9.34174,-25.008,10.3562,-15.778,-41.1406,0.337234,25,3363,3
-88.7456,4.99111,-44.2934,-1.54698,-3.95708,-109.4,-0.359558,-54.7708,-144.562,0.3214,25,3364,3
-24.1218,10.7858,-12.04,-1.0902,-8.55637,-29.7369,8.43275,-19.497,-43.8846,0.3214,25,3365,3
-72.3181,5.36318,-48.8089,-1.57184,-4.25671,-95.0804,0.482249,-35.6261,-133.826,0.337234,25,3366,3
-19.7161,11.3104,-13.2155,-0.96696,-8.97703,-25.8793,10.3562,-15.778,-41.1406,0.337234,25,3367,3
25.1234,10.6843,12.2494,-0.602168,-9.06898,29.1679,39.5631,23.2742,-9.14808,0.1607,25,3368,3
58.5033,8.67188,28.5541,-0.324174,-7.36137,67.9315,92.1631,37.8487,-3.9012,0.1607,25,3369,3
20.6185,11.1044,13.5783,-0.440971,-9.42099,25.1017,36.6307,19.778,-11.1295,0.168617,25,3370,3
48.2046,8.97206,31.5045,-0.184687,-7.61175,58.6067,85.3423,26.8294,-5.54508,0.168617,25,3371,3
24.3264,10.9791,12.0908,-0.602168,-8.70977,29.9649,39.5631,23.2742,-9.14808,0.1607,25,3372,3
56.6455,8.91173,28.1845,-0.324174,-7.06912,69.7893,92.1631,37.8487,-3.9012,0.1607,25,3373,3
19.7348,11.4063,13.4026,-0.440971,-9.05306,25.9853,36.6307,19.778,-11.1295,0.168617,25,3374,3
46.1546,9.21585,31.0967,-0.184687,-7.31468,60.6568,85.3423,26.8294,-5.54508,0.168617,25,3375,3
83.5663,6.15268,40.7959,-0.177743,-5.22398,97.0371,131.657,50.2832,-1.51472,0.0803501,25,3376,3
100.262,3.93084,48.9866,-0.12683,-3.33917,116.438,158.009,59.1712,-0.606675,0.0803501,25,3377,3
68.9744,6.3765,44.9332,-0.0594784,-5.40961,83.8104,121.942,33.0485,-2.26519,0.0843085,25,3378,3
82.8573,4.12211,53.888,-0.0218075,-3.49707,100.65,146.381,37.9567,-0.852026,0.0843085,25,3379,3
80.9125,6.32393,40.268,-0.177743,-5.01531,99.6909,131.657,50.2832,-1.51472,0.0803501,25,3380,3
97.0761,4.04188,48.3529,-0.12683,-3.20387,119.624,158.009,59.1712,-0.606675,0.0803501,25,3381,3
66.0505,6.54966,44.3516,-0.0594784,-5.19861,86.7342,121.942,33.0485,-2.26519,0.0843085,25,3382,3
79.3508,4.23406,53.1905,-0.0218075,-3.36066,104.157,146.381,37.9567,-0.852026,0.0843085,25,3383,3
112.765,2.01709,55.1529,-0.114366,-1.71603,130.978,177.781,66.0765,-0.22894,0.040175,25,3384,3
121.072,0.621403,59.2863,-0.123901,-0.532391,140.652,190.962,70.7779,-0.139739,0.040175,25,3385,3
93.275,2.18253,60.6142,-0.0182073,-1.85169,113.289,164.727,42.0476,-0.229328,0.0421542,25,3386,3
100.205,0.753253,65.1113,-0.0443346,-0.639745,121.704,176.959,44.9811,-0.075129,0.0421542,25,3387,3
109.179,2.07658,54.4397,-0.114366,-1.64355,134.564,177.781,66.0765,-0.22894,0.040175,25,3388,3
117.219,0.643391,58.5199,-0.123901,-0.505599,144.505,190.962,70.7779,-0.139739,0.040175,25,3389,3
89.3311,2.2419,59.8297,-0.0182073,-1.77935,117.233,164.727,42.0476,-0.229328,0.0421542,25,3390,3
95.969,0.774405,64.2687,-0.0443346,-0.613971,125.94,176.959,44.9811,-0.075129,0.0421542,25,3391,3
-62.8134,5.50469,-53.103,-1.59538,-4.67153,-80.3473,1.87701,-21.2214,-125.412,0.174555,25,3392,3
-17.4634,11.5123,-14.2351,-1.12098,-9.76827,-22.1635,12.1169,-13.63,-39.2347,0.174555,25,3393,3
-54.1774,5.31539,-55.6051,-1.96392,-4.51044,-72.5372,3.33661,-12.29,-119.725,0.178513,25,3394,3
-15.2737,11.4327,-15.1257,-2.8317,-9.70041,-20.2682,12.4143,-12.4406,-38.3473,0.178513,25,3395,3
-59.3583,5.65568,-52.4157,-1.59538,-4.48755,-83.8024,1.87701,-21.2214,-125.412,0.174555,25,3396,3
-16.537,11.8265,-14.0508,-1.12098,-9.38535,-23.0898,12.1169,-13.63,-39.2347,0.174555,25,3397,3
-50.5593,5.46075,-54.8854,-1.96392,-4.33331,-76.1553,3.33661,-12.29,-119.725,0.178513,25,3398,3
-14.2898,11.7444,-14.9299,-2.8317,-9.32055,-21.2521,12.4143,-12.4406,-38.3473,0.178513,25,3399,3
16.8296,11.4916,14.718,-0.542244,-9.75105,21.6888,34.1849,17.1995,-13.4082,0.0872773,25,3400,3
40.0607,9.14444,33.8512,-0.178736,-7.75957,51.237,79.9641,18.9896,-7.83476,0.0872773,25,3401,3
14.1685,12.1172,15.1294,-2.82494,-10.2827,19.162,32.0154,15.2756,-16.7854,0.0892564,25,3402,3
33.9414,10.037,35.4382,-1.82403,-8.51891,45.6382,75.7153,14.5171,-12.4769,0.0892564,25,3403,3
15.8716,11.8056,14.5274,-0.542244,-9.36842,22.6468,34.1849,17.1995,-13.4082,0.0872773,25,3404,3
37.8573,9.39446,33.413,-0.178736,-7.45492,53.4403,79.9641,18.9896,-7.83476,0.0872773,25,3405,3
13.1822,12.4491,14.9332,-2.82494,-9.87834,20.1483,32.0154,15.2756,-16.7854,0.0892564,25,3406,3
31.6314,10.3134,34.9787,-1.82403,-8.18223,47.9482,75.7153,14.5171,-12.4769,0.0892564,25,3407,3
57.7409,6.37376,48.0833,-0.0263066,-5.40853,73.6163,114.421,20.4409,-3.531,0.0436386,25,3408,3
69.6318,4.0429,57.5308,-0.00575912,-3.4312,88.6271,137.45,22.1539,-1.35048,0.0436386,25,3409,3
49.3371,6.97111,50.473,-0.751755,-5.91753,65.9965,108.833,12.8367,-7.08792,0.0446282,25,3410,3
60.2637,4.24989,60.1455,-0.216219,-3.60727,80.1183,131.16,12.0327,-3.02718,0.0446282,25,3411,3
54.6114,6.54807,47.4608,-0.0263066,-5.19614,76.7458,114.421,20.4409,-3.531,0.0436386,25,3412,3
65.888,4.15401,56.7861,-0.00575912,-3.29582,92.3708,137.45,22.1539,-1.35048,0.0436386,25,3413,3
46.0473,7.16382,49.8186,-0.751755,-5.68271,69.2864,108.833,12.8367,-7.08792,0.0446282,25,3414,3
56.3459,4.36707,59.3662,-0.216219,-3.46449,84.0361,131.16,12.0327,-3.02718,0.0446282,25,3415,3
78.5705,2.0845,64.6192,-0.00604522,-1.77078,99.9065,154.746,24.0637,-0.338228,0.0218193,25,3416,3
84.4773,0.69568,69.3762,-0.0522838,-0.591915,107.385,166.259,25.6558,-0.105037,0.0218193,25,3417,3
68.8421,2.05305,67.1848,0.032471,-1.74187,91.025,148.037,12.4942,-0.631831,0.0223141,25,3418,3
74.5924,0.691451,71.8044,-0.138171,-0.59002,98.3041,159.24,13.8722,-0.353987,0.0223141,25,3419,3
74.3658,2.14342,63.7829,-0.00604522,-1.69898,104.111,154.746,24.0637,-0.338228,0.0218193,25,3420,3
79.9641,0.716262,68.4784,-0.0522838,-0.566836,111.898,166.259,25.6558,-0.105037,0.0218193,25,3421,3
64.4703,2.10893,66.3151,0.032471,-1.67378,95.3969,148.037,12.4942,-0.631831,0.0223141,25,3422,3
69.9233,0.713578,70.8757,-0.138171,-0.563058,102.973,159.24,13.8722,-0.353987,0.0223141,25,3423,3
-48.2321,4.4902,-57.1899,-2.4416,-3.80942,-67.1316,5.09622,-7.24401,-115.657,0.0922591,25,3424,3
-13.2918,10.0409,-16.2578,-5.81057,-8.51934,-18.664,10.9194,-11.0503,-37.6354,0.0922591,25,3425,3
-45.0412,3.4877,-57.7446,-2.38451,-2.95857,-64.1244,6.59699,-5.02629,-113.121,0.0932817,25,3426,3
-12.0033,7.53161,-16.9295,-7.54231,-6.38843,-17.5976,8.50696,-9.22007,-36.4301,0.0932817,25,3427,3
-44.5267,4.61222,-56.4528,-2.4416,-3.66074,-70.837,5.09622,-7.24401,-115.657,0.0922591,25,3428,3
-12.2379,10.3145,-16.0482,-5.81057,-8.18591,-19.7179,10.9194,-11.0503,-37.6354,0.0922591,25,3429,3
-41.3002,3.58213,-57.0004,-2.38451,-2.84349,-67.8654,6.59699,-5.02629,-113.121,0.0932817,25,3430,3
-10.906,7.73502,-16.7112,-7.54231,-6.14057,-18.6949,8.50696,-9.22007,-36.4301,0.0932817,25,3431,3
13.1282,12.0309,14.1628,-8.80299,-10.2087,17.8112,29.8303,12.7352,-20.429,0.0461296,25,3432,3
29.6794,12.1241,35.3893,-8.82122,-10.2912,41.3793,71.4186,11.9179,-21.0991,0.0461296,25,3433,3
13.601,8.92784,12.5863,-14.6672,-7.56935,17.7625,28.4479,8.89482,-20.6464,0.0466408,25,3434,3
29.5065,10.3983,32.4653,-21.789,-8.80292,40.2456,67.8596,8.50862,-28.405,0.0466408,25,3435,3
12.2131,12.3597,13.9808,-8.80299,-9.80812,18.7263,29.8303,12.7352,-20.429,0.0461296,25,3436,3
27.3911,12.4587,34.9342,-8.82122,-9.88346,43.6676,71.4186,11.9179,-21.0991,0.0461296,25,3437,3
12.7875,9.16565,12.4245,-14.6672,-7.27958,18.5759,28.4479,8.89482,-20.6464,0.0466408,25,3438,3
27.4129,10.6624,32.0489,-21.789,-8.48115,42.3392,67.8596,8.50862,-28.405,0.0466408,25,3439,3
41.6363,10.3857,52.0949,-6.07199,-8.82226,58.8573,103.091,9.46139,-18.1307,0.0230648,25,3440,3
50.6151,6.85329,63.0361,-2.59873,-5.83178,71.4493,124.984,6.58933,-12.1073,0.0230648,25,3441,3
39.1893,13.0089,48.4947,-27.7074,-10.9931,55.2392,96.6849,7.30294,-37.2668,0.0233204,25,3442,3
43.0815,16.0395,60.9846,-29.4679,-13.5244,63.2645,116.044,5.96275,-45.1288,0.0233204,25,3443,3
38.266,10.6789,51.4245,-6.07199,-8.46504,62.2276,103.091,9.46139,-18.1307,0.0230648,25,3444,3
46.5334,7.05673,62.2242,-2.59873,-5.58388,75.5309,124.984,6.58933,-12.1073,0.0230648,25,3445,3
36.0702,13.3198,47.8743,-27.7074,-10.6143,58.3583,96.6849,7.30294,-37.2668,0.0233204,25,3446,3
39.1585,16.3937,60.2042,-29.4679,-13.0928,67.1874,116.044,5.96275,-45.1288,0.0233204,25,3447,3
59.7263,2.98695,69.8866,-0.676695,-2.55666,82.8142,142.169,5.59575,-5.90138,0.0115324,25,3448,3
65.8818,1.56804,74.0504,-1.61754,-1.34651,90.351,153.284,8.77274,-7.44193,0.0115324,25,3449,3
42.8865,17.5266,72.8487,-26.5077,-14.7381,66.9852,131.149,6.07437,-53.8596,0.0116602,25,3450,3
41.4308,13.3826,82.3736,-20.0946,-11.1721,68.6274,142.955,6.59839,-59.5896,0.0116602,25,3451,3
55.191,3.09026,68.9845,-0.676695,-2.43078,87.3495,142.169,5.59575,-5.90138,0.0115324,25,3452,3
61.0818,1.62655,73.0956,-1.61754,-1.27522,95.151,153.284,8.77274,-7.44193,0.0115324,25,3453,3
38.19,17.8742,71.9145,-26.5077,-14.3146,71.6817,131.149,6.07437,-53.8596,0.0116602,25,3454,3
36.0693,13.5683,81.3071,-20.0946,-10.9459,73.9889,142.955,6.59839,-59.5896,0.0116602,25,3455,3
-250.936,0.0857517,-0.0209325,-1.6153,-0.108096,-250.926,-1.61517,-250.909,-250.952,0.00167713,25,3456,3
-68.2511,0.182772,-0.00572449,-1.10911,-0.23034,-68.2484,-0.183943,-68.2445,-69.1802,0.00167713,25,3457,3
-250.842,0.134068,-0.050348,-1.61512,-0.16898,-250.818,-1.61482,-250.779,-250.882,0.00266631,25,3458,3
-68.2254,0.285541,-0.0137858,-1.10918,-0.359857,-68.219,-0.170956,-68.2096,-69.173,0.00266631,25,3459,3
-250.934,0.0893145,-0.021207,-1.6153,-0.105176,-250.927,-1.61518,-250.909,-250.952,0.00167713,25,3460,3
-68.2507,0.190283,-0.00579885,-1.10911,-0.22418,-68.2488,-0.183942,-68.2445,-69.1802,0.00167713,25,3461,3
-250.839,0.139579,-0.0510053,-1.61512,-0.164452,-250.822,-1.61482,-250.779,-250.882,0.00266631,25,3462,3
-68.2245,0.297237,-0.0139658,-1.10918,-0.350253,-68.2199,-0.170956,-68.2096,-69.173,0.00266631,25,3463,3
68.6248,0.186186,0.00573725,-0.607235,-0.234648,68.6221,68.6294,68.6192,-0.608877,0.000838566,25,3464,3
159.912,0.151448,0.0133839,-0.305329,-0.190874,159.906,159.923,159.896,-0.305739,0.000838566,25,3465,3
68.5991,0.291067,0.0138189,-0.60706,-0.366808,68.5927,68.6101,68.5856,-0.611001,0.00133315,25,3466,3
159.852,0.23665,0.0321728,-0.30522,-0.298247,159.837,159.878,159.813,-0.306201,0.00133315,25,3467,3
68.6244,0.19384,0.00581214,-0.607236,-0.228371,68.6225,68.6294,68.6192,-0.608878,0.000838566,25,3468,3
159.911,0.157686,0.0135589,-0.305328,-0.185759,159.907,159.923,159.896,-0.305738,0.000838566,25,3469,3
68.5982,0.302977,0.0139992,-0.60706,-0.357029,68.5936,68.6101,68.5856,-0.611001,0.00133315,25,3470,3
159.85,0.246348,0.0325926,-0.305221,-0.290282,159.839,159.878,159.813,-0.306201,0.00133315,25,3471,3
228.434,0.108047,0.0191242,-0.128623,-0.136189,228.425,228.449,228.41,-0.128764,0.000419283,25,3472,3
274.159,0.0698745,0.0228957,-0.049571,-0.088089,274.148,274.177,274.13,-0.0496223,0.000419283,25,3473,3
228.348,0.168799,0.0458614,-0.128872,-0.212748,228.327,228.385,228.291,-0.129207,0.000666576,25,3474,3
274.056,0.109267,0.0549575,-0.0502437,-0.137731,274.03,274.1,273.987,-0.0503645,0.000666576,25,3475,3
228.433,0.112518,0.0193741,-0.128623,-0.132524,228.426,228.449,228.41,-0.128763,0.000419283,25,3476,3
274.157,0.0727901,0.0231958,-0.0495691,-0.0857005,274.15,274.177,274.13,-0.0496204,0.000419283,25,3477,3
228.345,0.17573,0.0464599,-0.128872,-0.207054,228.33,228.385,228.291,-0.129207,0.000666576,25,3478,3
274.052,0.113768,0.055675,-0.0502438,-0.134032,274.034,274.1,273.987,-0.0503645,0.000666576,25,3479,3
308.478,0.0369904,0.0256652,-0.0128778,-0.046649,308.466,308.498,308.445,-0.0128915,0.000209641,25,3480,3
331.372,0.0127676,0.027433,-0.00186569,-0.01612,331.359,331.394,331.338,-0.00186879,0.000209641,25,3481,3
308.362,0.0579869,0.0619032,-0.0137744,-0.0731042,308.333,308.411,308.284,-0.0138053,0.000333288,25,3482,3
331.248,0.0198469,0.0663184,-0.00213514,-0.0250428,331.217,331.301,331.165,-0.00214046,0.000333288,25,3483,3
308.476,0.038558,0.0259973,-0.0128831,-0.0453605,308.467,308.498,308.445,-0.0128969,0.000209641,25,3484,3
331.37,0.0133453,0.0277981,-0.00186489,-0.0156398,331.361,331.394,331.338,-0.00186798,0.000209641,25,3485,3
308.358,0.060389,0.0627129,-0.013774,-0.0711283,308.337,308.411,308.284,-0.0138049,0.000333288,25,3486,3
331.244,0.0206923,0.0671847,-0.00213332,-0.0243482,331.222,331.301,331.165,-0.00213864,0.000333288,25,3487,3
-250.605,0.209871,-0.124802,-1.6158,-0.264492,-250.547,-1.61507,-250.448,-250.704,0.00830233,25,3488,3
-68.1605,0.448272,-0.0341928,-1.10928,-0.564881,-68.1445,-0.140948,-68.121,-69.1523,0.00830233,25,3489,3
-250.16,0.306941,-0.26407,-1.61445,-0.387043,-250.036,-1.61289,-249.828,-250.369,0.0122607,25,3490,3
-68.039,0.654802,-0.0719739,-1.10793,-0.825424,-68.0054,-0.0848245,-67.9562,-69.1113,0.0122607,25,3491,3
-250.596,0.218466,-0.126441,-1.61581,-0.257438,-250.555,-1.61507,-250.448,-250.704,0.00830233,25,3492,3
-68.1582,0.466574,-0.0346396,-1.10928,-0.549861,-68.1468,-0.140948,-68.121,-69.1523,0.00830233,25,3493,3
-250.142,0.319725,-0.267534,-1.61445,-0.376552,-250.054,-1.61289,-249.828,-250.369,0.0122607,25,3494,3
-68.0343,0.681818,-0.0729139,-1.10793,-0.803252,-68.0102,-0.0848245,-67.9562,-69.1113,0.0122607,25,3495,3
68.5338,0.456444,0.0343731,-0.60705,-0.575193,68.5178,68.5611,68.5003,-0.616817,0.00415116,25,3496,3
159.701,0.371037,0.0798271,-0.304829,-0.467568,159.664,159.764,159.603,-0.30726,0.00415116,25,3497,3
68.412,0.666872,0.0721348,-0.608432,-0.840623,68.3784,68.4693,68.3418,-0.629114,0.00613036,25,3498,3
159.417,0.54284,0.168352,-0.306771,-0.68432,159.338,159.55,159.21,-0.311931,0.00613036,25,3499,3
68.5316,0.475094,0.0348228,-0.60705,-0.559888,68.52,68.5611,68.5003,-0.616817,0.00415116,25,3500,3
159.696,0.386199,0.0808738,-0.304829,-0.455126,159.669,159.764,159.603,-0.30726,0.00415116,25,3501,3
68.4073,0.694371,0.0730783,-0.608432,-0.818055,68.3832,68.4693,68.3418,-0.629114,0.00613036,25,3502,3
159.406,0.565268,0.170555,-0.306771,-0.665914,159.349,159.55,159.21,-0.311931,0.00613036,25,3503,3
228.132,0.264447,0.113742,-0.128335,-0.333256,228.079,228.223,227.99,-0.129164,0.00207558,25,3504,3
273.797,0.171163,0.13622,-0.0499424,-0.215697,273.734,273.905,273.626,-0.0502405,0.00207558,25,3505,3
227.726,0.387661,0.240812,-0.13139,-0.488746,227.613,227.917,227.424,-0.133158,0.00306518,25,3506,3
273.309,0.251109,0.289189,-0.052608,-0.316639,273.174,273.539,272.945,-0.053245,0.00306518,25,3507,3
228.125,0.275262,0.115234,-0.128335,-0.324381,228.087,228.223,227.99,-0.129164,0.00207558,25,3508,3
273.788,0.17816,0.138007,-0.0499424,-0.209955,273.743,273.905,273.626,-0.0502405,0.00207558,25,3509,3
227.71,0.403726,0.243963,-0.13139,-0.475561,227.629,227.917,227.424,-0.133158,0.00306518,25,3510,3
273.29,0.261566,0.292975,-0.052608,-0.308057,273.193,273.539,272.945,-0.053245,0.00306518,25,3511,3
308.071,0.090895,0.153189,-0.0136445,-0.114537,307.999,308.192,307.878,-0.0137202,0.00103779,25,3512,3
330.936,0.0310937,0.164076,-0.000887173,-0.039184,330.86,331.067,330.729,-0.000899137,0.00103779,25,3513,3
307.524,0.131857,0.324966,-0.0138718,-0.166343,307.372,307.782,307.114,-0.0140302,0.00153259,25,3514,3
330.355,0.0423176,0.345626,0.00251104,-0.0535393,330.194,330.63,329.92,0.00248759,0.00153259,25,3515,3
308.061,0.094604,0.155199,-0.0136446,-0.111494,308.009,308.192,307.878,-0.0137203,0.00103779,25,3516,3
330.925,0.0323654,0.166239,-0.000887275,-0.0381402,330.871,331.067,330.729,-0.000899239,0.00103779,25,3517,3
307.502,0.137423,0.329229,-0.0138718,-0.161775,307.394,307.782,307.114,-0.0140302,0.00153259,25,3518,3
330.332,0.0442548,0.350195,0.00251103,-0.0519494,330.217,330.63,329.92,0.00248759,0.00153259,25,3519,3
-249.107,0.458935,-0.593556,-1.61811,-0.578635,-248.83,-1.61457,-248.363,-249.579,0.0363966,25,3520,3
-67.7504,0.978608,-0.162932,-1.10822,-1.23348,-67.6745,0.0252236,-67.5627,-68.9956,0.0363966,25,3521,3
-247.194,0.641395,-1.19457,-1.63049,-0.810018,-246.636,-1.62348,-245.695,-248.142,0.0522301,25,3522,3
-67.2146,1.40505,-0.33182,-1.10017,-1.77237,-67.06,0.21191,-66.8331,-68.7536,0.0522301,25,3523,3
-249.068,0.477983,-0.601377,-1.61811,-0.563003,-248.87,-1.61457,-248.363,-249.579,0.0363966,25,3524,3
-67.7397,1.01886,-0.16506,-1.10822,-1.20044,-67.6852,0.0252236,-67.5627,-68.9956,0.0363966,25,3525,3
-247.114,0.669324,-1.21036,-1.63049,-0.787097,-246.715,-1.62348,-245.695,-248.142,0.0522301,25,3526,3
-67.1929,1.4642,-0.336139,-1.10017,-1.72382,-67.0817,0.21191,-66.8331,-68.7536,0.0522301,25,3527,3
68.1229,0.995463,0.163236,-0.60839,-1.25478,68.0468,68.2525,67.9639,-0.655077,0.0181983,25,3528,3
158.745,0.810679,0.378687,-0.306996,-1.02186,158.569,159.046,158.28,-0.318676,0.0181983,25,3529,3
67.5894,1.42706,0.331004,-0.612844,-1.80017,67.4351,67.8523,67.2683,-0.708879,0.0261151,25,3530,3
157.504,1.16171,0.769651,-0.314018,-1.46564,157.146,158.115,156.559,-0.338091,0.0261151,25,3531,3
68.1122,1.03647,0.165375,-0.60839,-1.22113,68.0576,68.2525,67.9639,-0.655077,0.0181983,25,3532,3
158.72,0.844065,0.383661,-0.306996,-0.994456,158.594,159.046,158.28,-0.318676,0.0181983,25,3533,3
67.5677,1.48718,0.335335,-0.612844,-1.75084,67.4569,67.8523,67.2683,-0.708879,0.0261151,25,3534,3
157.454,1.21084,0.779736,-0.314018,-1.42532,157.196,158.115,156.559,-0.338091,0.0261151,25,3535,3
226.766,0.580367,0.540913,-0.133784,-0.731558,226.514,227.196,226.089,-0.13781,0.00909915,25,3536,3
272.157,0.377211,0.649643,-0.0542558,-0.4755,271.854,272.673,271.34,-0.0557191,0.00909915,25,3537,3
225,0.825321,1.09958,-0.132028,-1.04159,224.487,225.873,223.622,-0.140226,0.0130575,25,3538,3
270.059,0.522259,1.31181,-0.0379223,-0.659635,269.446,271.1,268.408,-0.0407428,0.0130575,25,3539,3
226.73,0.604277,0.548015,-0.133784,-0.711936,226.55,227.196,226.089,-0.13781,0.00909915,25,3540,3
272.114,0.392773,0.658181,-0.0542558,-0.462728,271.897,272.673,271.34,-0.0557191,0.00909915,25,3541,3
224.927,0.860564,1.114,-0.132028,-1.01267,224.56,225.873,223.622,-0.140226,0.0130575,25,3542,3
269.972,0.545073,1.3291,-0.0379223,-0.640912,269.533,271.1,268.408,-0.0407428,0.0130575,25,3543,3
306.229,0.199448,0.730227,-0.0114495,-0.251488,305.888,306.808,305.309,-0.0118172,0.00454957,25,3544,3
328.967,0.0646556,0.780259,0.0132138,-0.0816826,328.603,329.587,327.984,0.013163,0.00454957,25,3545,3
303.898,0.256769,1.46065,0.0191474,-0.325122,303.216,305.057,302.057,0.0185404,0.00652877,25,3546,3
326.498,0.0607461,1.54545,0.0535294,-0.0782446,325.776,327.724,324.55,0.0534256,0.00652877,25,3547,3
306.18,0.207745,0.739854,-0.0114495,-0.244678,305.936,306.808,305.309,-0.0118172,0.00454957,25,3548,3
328.915,0.0674995,0.790614,0.0132138,-0.0793487,328.655,329.587,327.984,0.013163,0.00454957,25,3549,3
303.801,0.268782,1.48001,0.0191474,-0.315263,303.313,305.057,302.057,0.0185404,0.00652877,25,3550,3
326.395,0.0648902,1.56611,0.0535293,-0.0748436,325.879,327.724,324.55,0.0534256,0.00652877,25,3551,3
-242.762,0.950789,-2.57219,-1.65033,-1.19992,-241.561,-1.63431,-239.535,-244.803,0.151961,25,3552,3
-65.9974,2.04624,-0.712044,-1.09101,-2.58016,-65.6655,0.536719,-65.1841,-68.1066,0.151961,25,3553,3
-234.852,1.24496,-5.07544,-1.83141,-1.57772,-232.479,-1.8016,-228.482,-238.879,0.215295,25,3554,3
-63.7694,2.97507,-1.44089,-1.15179,-3.7574,-63.0972,1.01366,-62.1477,-66.8844,0.215295,25,3555,3
-242.591,0.991376,-2.60628,-1.65033,-1.16661,-241.732,-1.63431,-239.535,-244.803,0.151961,25,3556,3
-65.9507,2.13138,-0.721338,-1.09101,-2.51028,-65.7123,0.536719,-65.1841,-68.1066,0.151961,25,3557,3
-234.511,1.30453,-5.14316,-1.83141,-1.52884,-232.819,-1.8016,-228.482,-238.879,0.215295,25,3558,3
-63.6742,3.1048,-1.45983,-1.15179,-3.65094,-63.1924,1.01366,-62.1477,-66.8844,0.215295,25,3559,3
66.3709,2.0809,0.709974,-0.621816,-2.62391,66.0398,66.9347,65.6886,-0.834277,0.0759804,25,3560,3
154.667,1.69769,1.65243,-0.328569,-2.14087,153.896,155.978,152.638,-0.382616,0.0759804,25,3561,3
64.1495,3.04081,1.43356,-0.554138,-3.84021,63.4804,65.2875,62.8189,-1.03072,0.107648,25,3562,3
149.515,2.41639,3.32196,-0.179819,-3.05343,147.964,152.151,145.443,-0.295239,0.107648,25,3563,3
66.3241,2.16753,0.719285,-0.621816,-2.55282,66.0867,66.9347,65.6886,-0.834277,0.0759804,25,3564,3
154.557,1.76854,1.67414,-0.328569,-2.08273,154.005,155.978,152.638,-0.382616,0.0759804,25,3565,3
64.0544,3.17319,1.45247,-0.554138,-3.73157,63.5754,65.2875,62.8189,-1.03072,0.107648,25,3566,3
149.294,2.52335,3.36586,-0.179819,-2.96565,148.185,152.151,145.443,-0.295239,0.107648,25,3567,3
220.955,1.21309,2.35661,-0.140678,-1.53012,219.855,222.825,218.003,-0.159462,0.0379902,25,3568,3
265.216,0.777515,2.81622,-0.0259876,-0.981274,263.9,267.45,261.672,-0.0326347,0.0379902,25,3569,3
213.672,1.64086,4.69418,0.0611439,-2.07631,211.479,217.397,207.79,0.0256068,0.0538238,25,3570,3
256.58,0.968345,5.55383,0.19515,-1.22907,253.983,260.986,249.587,0.184598,0.0538238,25,3571,3
220.799,1.26405,2.38765,-0.140678,-1.4883,220.011,222.825,218.003,-0.159462,0.0379902,25,3572,3
265.028,0.810734,2.85348,-0.0259876,-0.954012,264.088,267.45,261.672,-0.0326347,0.0379902,25,3573,3
213.359,1.71629,4.75645,0.0611439,-2.0144,211.792,217.397,207.79,0.0256068,0.0538238,25,3574,3
256.207,1.01654,5.62788,0.19515,-1.18952,254.356,260.986,249.587,0.184598,0.0538238,25,3575,3
298.458,0.393448,3.15111,0.0572082,-0.497429,296.986,300.959,294.487,0.0557108,0.0189951,25,3576,3
320.661,0.103613,3.36248,0.1189,-0.132341,319.088,323.328,316.421,0.118675,0.0189951,25,3577,3
288.838,0.398845,6.16688,0.280866,-0.511667,285.953,293.73,281.063,0.278459,0.0269119,25,3578,3
310.404,-0.0103898,6.54783,0.332781,0.00387006,307.338,315.597,302.148,0.330161,0.0269119,25,3579,3
298.248,0.411113,3.19301,0.0572082,-0.482931,297.196,300.959,294.487,0.0557108,0.0189951,25,3580,3
320.435,0.109584,3.40743,0.1189,-0.127441,319.314,323.328,316.421,0.118675,0.0189951,25,3581,3
288.423,0.424024,6.2495,0.280866,-0.491003,286.368,293.73,281.063,0.278459,0.0269119,25,3582,3
309.961,-0.00176876,6.63593,0.332781,0.0109451,307.781,315.597,302.148,0.330161,0.0269119,25,3583,3
-216.471,1.95998,-10.6551,-1.84793,-2.46969,-211.494,-1.7565,-203.13,-224.927,0.620593,25,3584,3
-58.8114,4.16063,-2.93344,-1.14883,-5.24284,-57.4422,1.85108,-55.603,-63.6504,0.620593,25,3585,3
-183.94,2.81097,-20.7647,-1.57028,-3.53377,-174.258,-1.32493,-158.019,-200.425,0.873929,25,3586,3
-50.0054,5.74638,-5.65842,-1.09957,-7.2327,-47.3669,3.31703,-44.0323,-57.7567,0.873929,25,3587,3
-215.761,2.03986,-10.7963,-1.84793,-2.40414,-212.204,-1.7565,-203.13,-224.927,0.620593,25,3588,3
-58.6168,4.33041,-2.97214,-1.14883,-5.10352,-57.6367,1.85108,-55.603,-63.6504,0.620593,25,3589,3
-182.573,2.91747,-21.0367,-1.57028,-3.44636,-175.626,-1.32493,-158.019,-200.425,0.873929,25,3590,3
-49.6328,5.97266,-5.73255,-1.09957,-7.047,-47.7396,3.31703,-44.0323,-57.7567,0.873929,25,3591,3
59.1585,4.23676,2.9386,-0.561027,-5.33873,57.7867,61.5015,56.577,-1.69426,0.310296,25,3592,3
137.87,3.45076,6.83656,-0.190504,-4.34833,134.678,143.296,129.557,-0.495453,0.310296,25,3593,3
50.308,5.84801,5.6793,-0.617072,-7.36076,47.6597,54.8893,45.5802,-3.11891,0.436965,25,3594,3
117.22,4.79876,13.2365,-0.329553,-6.03863,111.048,127.728,101.286,-1.07573,0.436965,25,3595,3
58.9635,4.4096,2.97739,-0.561027,-5.19689,57.9818,61.5015,56.577,-1.69426,0.310296,25,3596,3
137.416,3.59157,6.9269,-0.190504,-4.23277,135.132,143.296,129.557,-0.495453,0.310296,25,3597,3
49.9339,6.07844,5.75371,-0.617072,-7.17166,48.0338,54.8893,45.5802,-3.11891,0.436965,25,3598,3
116.348,4.98641,13.4099,-0.329553,-5.88463,111.92,127.728,101.286,-1.07573,0.436965,25,3599,3
197.002,2.46688,9.73495,0.0540188,-3.10855,192.456,204.727,184.838,-0.054076,0.155148,25,3600,3
236.514,1.59779,11.6393,0.199484,-2.01337,231.078,245.751,221.881,0.159832,0.155148,25,3601,3
167.456,3.48608,18.9039,-0.167575,-4.38454,158.642,182.463,143.916,-0.448808,0.218482,25,3602,3
200.994,2.32741,22.678,-0.100228,-2.9245,190.419,218.997,172.53,-0.214318,0.218482,25,3603,3
196.354,2.56756,9.86376,0.0540188,-3.02592,193.103,204.727,184.838,-0.054076,0.155148,25,3604,3
235.739,1.66297,11.7936,0.199484,-1.95988,231.853,245.751,221.881,0.159832,0.155148,25,3605,3
166.211,3.62019,19.1515,-0.167575,-4.27448,159.887,182.463,143.916,-0.448808,0.218482,25,3606,3
199.5,2.41425,22.9751,-0.100228,-2.85324,191.913,218.997,172.53,-0.214318,0.218482,25,3607,3
266.2,0.843161,13.053,0.298733,-1.06239,260.102,276.558,249.754,0.288463,0.0775741,25,3608,3
286.028,0.283331,13.9833,0.363304,-0.356897,279.494,297.123,268.4,0.361281,0.0775741,25,3609,3
226.178,1.32158,25.5042,-0.0712697,-1.65716,214.285,246.424,194.075,-0.107996,0.109241,25,3610,3
242.99,0.575346,27.3829,-0.0626074,-0.717077,230.222,264.729,208.494,-0.0720732,0.109241,25,3611,3
265.329,0.877482,13.2262,0.298733,-1.03422,260.973,276.558,249.754,0.288463,0.0775741,25,3612,3
285.093,0.294764,14.1691,0.363304,-0.347514,280.428,297.123,268.4,0.361281,0.0775741,25,3613,3
224.498,1.36749,25.8383,-0.0712697,-1.61948,215.965,246.424,194.075,-0.107996,0.109241,25,3614,3
241.187,0.591055,27.7416,-0.0626074,-0.704185,232.026,264.729,208.494,-0.0720732,0.109241,25,3615,3
-153.619,3.22442,-30.3963,-1.41578,-4.07044,-139.45,-1.02598,-115.708,-177.751,0.531966,25,3616,3
-41.8022,7.13767,-8.23974,-1.05601,-9.0005,-37.9606,4.93065,-33.4871,-52.2624,0.531966,25,3617,3
-129.24,3.71933,-38.0651,-1.57626,-4.68461,-111.489,-0.853127,-81.9947,-159.458,0.5953,25,3618,3
-35.1313,7.87109,-10.3568,-1.1217,-9.91537,-30.3012,6.4507,-25.3872,-47.6177,0.5953,25,3619,3
-151.622,3.36318,-30.7937,-1.41578,-3.95656,-141.448,-1.02598,-115.708,-177.751,0.531966,25,3620,3
-41.26,7.43507,-8.3476,-1.05601,-8.75643,-38.5028,4.93065,-33.4871,-52.2624,0.531966,25,3621,3
-126.732,3.86899,-38.564,-1.57626,-4.56178,-113.997,-0.853127,-81.9947,-159.458,0.5953,25,3622,3
-34.4484,8.18927,-10.4926,-1.1217,-9.65425,-30.9841,6.4507,-25.3872,-47.6177,0.5953,25,3623,3
42.0641,7.28262,8.27642,-0.667099,-9.18314,38.2054,48.6346,35.8873,-4.91951,0.265983,25,3624,3
97.9829,5.87041,19.3078,-0.440408,-7.4039,88.9815,113.311,74.9484,-1.73549,0.265983,25,3625,3
35.3745,8.01726,10.3973,-0.600064,-10.0996,30.5256,43.6282,28.485,-6.81318,0.29765,25,3626,3
82.4037,6.53397,24.2384,-0.295367,-8.2306,71.1001,101.645,54.0819,-2.51844,0.29765,25,3627,3
41.5196,7.58592,8.38473,-0.667099,-8.93423,38.7499,48.6346,35.8873,-4.91951,0.265983,25,3628,3
96.7129,6.11637,19.5604,-0.440408,-7.20204,90.2516,113.311,74.9484,-1.73549,0.265983,25,3629,3
34.689,8.34141,10.5336,-0.600064,-9.83353,31.2111,43.6282,28.485,-6.81318,0.29765,25,3630,3
80.8059,6.79774,24.5562,-0.295367,-8.01413,72.6978,101.645,54.0819,-2.51844,0.29765,25,3631,3
139.929,4.11585,27.6165,-0.31911,-5.19342,127.055,161.854,105.572,-0.761153,0.132991,25,3632,3
167.888,2.58856,33.191,-0.275319,-3.26937,152.416,194.238,126.218,-0.428484,0.132991,25,3633,3
117.716,4.67935,34.6256,-0.13243,-5.89384,101.569,145.203,74.8942,-0.944825,0.148825,25,3634,3
141.279,3.0448,41.5602,-0.0854123,-3.83461,121.898,174.271,89.2078,-0.387566,0.148825,25,3635,3
138.113,4.29066,27.9777,-0.31911,-5.04995,128.871,161.854,105.572,-0.761153,0.132991,25,3636,3
165.706,2.70155,33.6249,-0.275319,-3.17664,154.597,194.238,126.218,-0.428484,0.132991,25,3637,3
115.434,4.8677,35.0795,-0.13243,-5.73927,103.851,145.203,74.8942,-0.944825,0.148825,25,3638,3
138.54,3.16692,42.105,-0.0854123,-3.73439,124.637,174.271,89.2078,-0.387566,0.148825,25,3639,3
188.861,1.28601,37.3868,-0.262915,-1.62864,171.434,218.543,141.787,-0.298264,0.0664957,25,3640,3
202.847,0.340106,40.1925,-0.266031,-0.437316,184.112,234.756,152.209,-0.272065,0.0664957,25,3641,3
158.961,1.62907,46.7675,-0.0867472,-2.05127,137.153,196.088,100.107,-0.166436,0.0744125,25,3642,3
170.754,0.580364,50.2437,-0.112946,-0.730541,147.326,210.64,107.453,-0.12588,0.0744125,25,3643,3
186.404,1.34646,37.8754,-0.262915,-1.57903,173.89,218.543,141.787,-0.298264,0.0664957,25,3644,3
200.206,0.362562,40.7177,-0.266031,-0.418887,186.753,234.756,152.209,-0.272065,0.0664957,25,3645,3
155.881,1.69404,47.3803,-0.0867472,-1.99795,140.234,196.088,100.107,-0.166436,0.0744125,25,3646,3
167.445,0.60328,50.902,-0.112946,-0.711734,150.635,210.64,107.453,-0.12588,0.0744125,25,3647,3
-109.4,3.95708,-44.2934,-1.54698,-4.99111,-88.7456,-0.359558,-54.7708,-144.562,0.3214,25,3648,3
-29.7369,8.55637,-12.04,-1.0902,-10.7858,-24.1218,8.43275,-19.497,-43.8846,0.3214,25,3649,3
-95.0804,4.25671,-48.8089,-1.57184,-5.36318,-72.3181,0.482249,-35.6261,-133.826,0.337234,25,3650,3
-25.8793,8.97703,-13.2155,-0.96696,-11.3104,-19.7161,10.3562,-15.778,-41.1406,0.337234,25,3651,3
-106.482,4.12322,-44.8739,-1.54698,-4.85476,-91.6637,-0.359558,-54.7708,-144.562,0.3214,25,3652,3
-28.9431,8.90927,-12.1979,-1.0902,-10.4962,-24.9156,8.43275,-19.497,-43.8846,0.3214,25,3653,3
-91.8628,4.42969,-49.4489,-1.57184,-5.22122,-75.5357,0.482249,-35.6261,-133.826,0.337234,25,3654,3
-25.008,9.34174,-13.3888,-0.96696,-11.0111,-20.5874,10.3562,-15.778,-41.1406,0.337234,25,3655,3
29.9649,8.70977,12.0908,-0.602168,-10.9791,24.3264,39.5631,23.2742,-9.14808,0.1607,25,3656,3
69.7893,7.06912,28.1845,-0.324174,-8.91173,56.6455,92.1631,37.8487,-3.9012,0.1607,25,3657,3
25.9853,9.05306,13.4026,-0.440971,-11.4063,19.7348,36.6307,19.778,-11.1295,0.168617,25,3658,3
60.6568,7.31468,31.0967,-0.184687,-9.21585,46.1546,85.3423,26.8294,-5.54508,0.168617,25,3659,3
29.1679,9.06898,12.2494,-0.602168,-10.6843,25.1234,39.5631,23.2742,-9.14808,0.1607,25,3660,3
67.9315,7.36137,28.5541,-0.324174,-8.67188,58.5033,92.1631,37.8487,-3.9012,0.1607,25,3661,3
25.1017,9.42099,13.5783,-0.440971,-11.1044,20.6185,36.6307,19.778,-11.1295,0.168617,25,3662,3
58.6067,7.61175,31.5045,-0.184687,-8.97206,48.2046,85.3423,26.8294,-5.54508,0.168617,25,3663,3
99.6909,5.01531,40.268,-0.177743,-6.32393,80.9125,131.657,50.2832,-1.51472,0.0803501,25,3664,3
119.624,3.20387,48.3529,-0.12683,-4.04188,97.0761,158.009,59.1712,-0.606675,0.0803501,25,3665,3
86.7342,5.19861,44.3516,-0.0594784,-6.54966,66.0505,121.942,33.0485,-2.26519,0.0843085,25,3666,3
104.157,3.36066,53.1905,-0.0218075,-4.23406,79.3508,146.381,37.9567,-0.852026,0.0843085,25,3667,3
97.0371,5.22398,40.7959,-0.177743,-6.15268,83.5663,131.657,50.2832,-1.51472,0.0803501,25,3668,3
116.438,3.33917,48.9866,-0.12683,-3.93084,100.262,158.009,59.1712,-0.606675,0.0803501,25,3669,3
83.8104,5.40961,44.9332,-0.0594784,-6.3765,68.9744,121.942,33.0485,-2.26519,0.0843085,25,3670,3
100.65,3.49707,53.888,-0.0218075,-4.12211,82.8573,146.381,37.9567,-0.852026,0.0843085,25,3671,3
134.564,1.64355,54.4397,-0.114366,-2.07658,109.179,177.781,66.0765,-0.22894,0.040175,25,3672,3
144.505,0.505599,58.5199,-0.123901,-0.643391,117.219,190.962,70.7779,-0.139739,0.040175,25,3673,3
117.233,1.77935,59.8297,-0.0182073,-2.2419,89.3311,164.727,42.0476,-0.229328,0.0421542,25,3674,3
125.94,0.613971,64.2687,-0.0443346,-0.774405,95.969,176.959,44.9811,-0.075129,0.0421542,25,3675,3
130.978,1.71603,55.1529,-0.114366,-2.01709,112.765,177.781,66.0765,-0.22894,0.040175,25,3676,3
140.652,0.532391,59.2863,-0.123901,-0.621403,121.072,190.962,70.7779,-0.139739,0.040175,25,3677,3
113.289,1.85169,60.6142,-0.0182073,-2.18253,93.275,164.727,42.0476,-0.229328,0.0421542,25,3678,3
121.704,0.639745,65.1113,-0.0443346,-0.753253,100.205,176.959,44.9811,-0.075129,0.0421542,25,3679,3
-83.8024,4.48755,-52.4157,-1.59538,-5.65568,-59.3583,1.87701,-21.2214,-125.412,0.174555,25,3680,3
-23.0898,9.38535,-14.0508,-1.12098,-11.8265,-16.537,12.1169,-13.63,-39.2347,0.174555,25,3681,3
-76.1553,4.33331,-54.8854,-1.96392,-5.46075,-50.5593,3.33661,-12.29,-119.725,0.178513,25,3682,3
-21.2521,9.32055,-14.9299,-2.8317,-11.7444,-14.2898,12.4143,-12.4406,-38.3473,0.178513,25,3683,3
-80.3473,4.67153,-53.103,-1.59538,-5.50469,-62.8134,1.87701,-21.2214,-125.412,0.174555,25,3684,3
-22.1635,9.76827,-14.2351,-1.12098,-11.5123,-17.4634,12.1169,-13.63,-39.2347,0.174555,25,3685,3
-72.5372,4.51044,-55.6051,-1.96392,-5.31539,-54.1774,3.33661,-12.29,-119.725,0.178513,25,3686,3
-20.2682,9.70041,-15.1257,-2.8317,-11.4327,-15.2737,12.4143,-12.4406,-38.3473,0.178513,25,3687,3
22.6468,9.36842,14.5274,-0.542244,-11.8056,15.8716,34.1849,17.1995,-13.4082,0.0872773,25,3688,3
53.4403,7.45492,33.413,-0.178736,-9.39446,37.8573,79.9641,18.9896,-7.83476,0.0872773,25,3689,3
20.1483,9.87834,14.9332,-2.82494,-12.4491,13.1822,32.0154,15.2756,-16.7854,0.0892564,25,3690,3
47.9482,8.18223,34.9787,-1.82403,-10.3134,31.6314,75.7153,14.5171,-12.4769,0.0892564,25,3691,3
21.6888,9.75105,14.718,-0.542244,-11.4916,16.8296,34.1849,17.1995,-13.4082,0.0872773,25,3692,3
51.237,7.75957,33.8512,-0.178736,-9.14444,40.0607,79.9641,18.9896,-7.83476,0.0872773,25,3693,3
19.162,10.2827,15.1294,-2.82494,-12.1172,14.1685,32.0154,15.2756,-16.7854,0.0892564,25,3694,3
45.6382,8.51891,35.4382,-1.82403,-10.037,33.9414,75.7153,14.5171,-12.4769,0.0892564,25,3695,3
76.7458,5.19614,47.4608,-0.0263066,-6.54807,54.6114,114.421,20.4409,-3.531,0.0436386,25,3696,3
92.3708,3.29582,56.7861,-0.00575912,-4.15401,65.888,137.45,22.1539,-1.35048,0.0436386,25,3697,3
69.2864,5.68271,49.8186,-0.751755,-7.16382,46.0473,108.833,12.8367,-7.08792,0.0446282,25,3698,3
84.0361,3.46449,59.3662,-0.216219,-4.36707,56.3459,131.16,12.0327,-3.02718,0.0446282,25,3699,3
73.6163,5.40853,48.0833,-0.0263066,-6.37376,57.7409,114.421,20.4409,-3.531,0.0436386,25,3700,3
88.6271,3.4312,57.5308,-0.00575912,-4.0429,69.6318,137.45,22.1539,-1.35048,0.0436386,25,3701,3
65.9965,5.91753,50.473,-0.751755,-6.97111,49.3371,108.833,12.8367,-7.08792,0.0446282,25,3702,3
80.1183,3.60727,60.1455,-0.216219,-4.24989,60.2637,131.16,12.0327,-3.02718,0.0446282,25,3703,3
104.111,1.69898,63.7829,-0.00604522,-2.14342,74.3658,154.746,24.0637,-0.338228,0.0218193,25,3704,3
111.898,0.566836,68.4784,-0.0522838,-0.716262,79.9641,166.259,25.6558,-0.105037,0.0218193,25,3705,3
95.3969,1.67378,66.3151,0.032471,-2.10893,64.4703,148.037,12.4942,-0.631831,0.0223141,25,3706,3
102.973,0.563058,70.8757,-0.138171,-0.713578,69.9233,159.24,13.8722,-0.353987,0.0223141,25,3707,3
99.9065,1.77078,64.6192,-0.00604522,-2.0845,78.5705,154.746,24.0637,-0.338228,0.0218193,25,3708,3
107.385,0.591915,69.3762,-0.0522838,-0.69568,84.4773,166.259,25.6558,-0.105037,0.0218193,25,3709,3
91.025,1.74187,67.1848,0.032471,-2.05305,68.8421,148.037,12.4942,-0.631831,0.0223141,25,3710,3
98.3041,0.59002,71.8044,-0.138171,-0.691451,74.5924,159.24,13.8722,-0.353987,0.0223141,25,3711,3
-70.837,3.66074,-56.4528,-2.4416,-4.61222,-44.5267,5.09622,-7.24401,-115.657,0.0922591,25,3712,3
-19.7179,8.18591,-16.0482,-5.81057,-10.3145,-12.2379,10.9194,-11.0503,-37.6354,0.0922591,25,3713,3
-67.8654,2.84349,-57.0004,-2.38451,-3.58213,-41.3002,6.59699,-5.02629,-113.121,0.0932817,25,3714,3
-18.6949,6.14057,-16.7112,-7.54231,-7.73502,-10.906,8.50696,-9.22007,-36.4301,0.0932817,25,3715,3
-67.1316,3.80942,-57.1899,-2.4416,-4.4902,-48.2321,5.09622,-7.24401,-115.657,0.0922591,25,3716,3
-18.664,8.51934,-16.2578,-5.81057,-10.0409,-13.2918,10.9194,-11.0503,-37.6354,0.0922591,25,3717,3
-64.1244,2.95857,-57.7446,-2.38451,-3.4877,-45.0412,6.59699,-5.02629,-113.121,0.0932817,25,3718,3
-17.5976,6.38843,-16.9295,-7.54231,-7.53161,-12.0033,8.50696,-9.22007,-36.4301,0.0932817,25,3719,3
18.7263,9.80812,13.9808,-8.80299,-12.3597,12.2131,29.8303,12.7352,-20.429,0.0461296,25,3720,3
43.6676,9.88346,34.9342,-8.82122,-12.4587,27.3911,71.4186,11.9179,-21.0991,0.0461296,25,3721,3
18.5759,7.27958,12.4245,-14.6672,-9.16565,12.7875,28.4479,8.89482,-20.6464,0.0466408,25,3722,3
42.3392,8.48115,32.0489,-21.789,-10.6624,27.4129,67.8596,8.50862,-28.405,0.0466408,25,3723,3
17.8112,10.2087,14.1628,-8.80299,-12.0309,13.1282,29.8303,12.7352,-20.429,0.0461296,25,3724,3
41.3793,10.2912,35.3893,-8.82122,-12.1241,29.6794,71.4186,11.9179,-21.0991,0.0461296,25,3725,3
17.7625,7.56935,12.5863,-14.6672,-8.92784,13.601,28.4479,8.89482,-20.6464,0.0466408,25,3726,3
40.2456,8.80292,32.4653,-21.789,-10.3983,29.5065,67.8596,8.50862,-28.405,0.0466408,25,3727,3
62.2276,8.46504,51.4245,-6.07199,-10.6789,38.266,103.091,9.46139,-18.1307,0.0230648,25,3728,3
75.5309,5.58388,62.2242,-2.59873,-7.05673,46.5334,124.984,6.58933,-12.1073,0.0230648,25,3729,3
58.3583,10.6143,47.8743,-27.7074,-13.3198,36.0702,96.6849,7.30294,-37.2668,0.0233204,25,3730,3
67.1874,13.0928,60.2042,-29.4679,-16.3937,39.1585,116.044,5.96275,-45.1288,0.0233204,25,3731,3
58.8573,8.82226,52.0949,-6.07199,-10.3857,41.6363,103.091,9.46139,-18.1307,0.0230648,25,3732,3
71.4493,5.83178,63.0361,-2.59873,-6.85329,50.6151,124.984,6.58933,-12.1073,0.0230648,25,3733,3
55.2392,10.9931,48.4947,-27.7074,-13.0089,39.1893,96.6849,7.30294,-37.2668,0.0233204,25,3734,3
63.2645,13.5244,60.9846,-29.4679,-16.0395,43.0815,116.044,5.96275,-45.1288,0.0233204,25,3735,3
87.3495,2.43078,68.9845,-0.676695,-3.09026,55.191,142.169,5.59575,-5.90138,0.0115324,25,3736,3
95.151,1.27522,73.0956,-1.61754,-1.62655,61.0818,153.284,8.77274,-7.44193,0.0115324,25,3737,3
71.6817,14.3146,71.9145,-26.5077,-17.8742,38.19,131.149,6.07437,-53.8596,0.0116602,25,3738,3
73.9889,10.9459,81.3071,-20.0946,-13.5683,36.0693,142.955,6.59839,-59.5896,0.0116602,25,3739,3
82.8142,2.55666,69.8866,-0.676695,-2.98695,59.7263,142.169,5.59575,-5.90138,0.0115324,25,3740,3
90.351,1.34651,74.0504,-1.61754,-1.56804,65.8818,153.284,8.77274,-7.44193,0.0115324,25,3741,3
66.9852,14.7381,72.8487,-26.5077,-17.5266,42.8865,131.149,6.07437,-53.8596,0.0116602,25,3742,3
68.6274,11.1721,82.3736,-20.0946,-13.3826,41.4308,142.955,6.59839,-59.5896,0.0116602,25,3743,3
-250.933,0.0926181,-0.0213903,-1.6153,-0.102279,-250.929,-1.61518,-250.909,-250.952,0.00167713,25,3744,3
-68.2503,0.197425,-0.00584956,-1.10911,-0.217917,-68.2491,-0.183942,-68.2445,-69.1802,0.00167713,25,3745,3
-250.835,0.144826,-0.0514484,-1.61512,-0.15985,-250.825,-1.61482,-250.779,-250.882,0.00266631,25,3746,3
-68.2236,0.30846,-0.0140872,-1.10918,-0.340411,-68.2208,-0.170956,-68.2096,-69.173,0.00266631,25,3747,3
-250.932,0.0959783,-0.0214814,-1.6153,-0.0991274,-250.93,-1.61517,-250.909,-250.952,0.00167713,25,3748,3
-68.2499,0.204513,-0.00587502,-1.10911,-0.211274,-68.2495,-0.183943,-68.2445,-69.1802,0.00167713,25,3749,3
-250.832,0.150035,-0.0516693,-1.61512,-0.154977,-250.828,-1.61482,-250.779,-250.882,0.00266631,25,3750,3
-68.2226,0.319508,-0.0141473,-1.10918,-0.330069,-68.2217,-0.170956,-68.2096,-69.173,0.00266631,25,3751,3
68.6241,0.201116,0.00586261,-0.607236,-0.22199,68.6229,68.6294,68.6192,-0.608878,0.000838566,25,3752,3
159.911,0.163588,0.0136765,-0.305328,-0.180583,159.908,159.923,159.896,-0.305738,0.000838566,25,3753,3
68.5973,0.314428,0.0141209,-0.60706,-0.346986,68.5945,68.6101,68.5856,-0.611001,0.00133315,25,3754,3
159.848,0.255643,0.0328761,-0.305221,-0.28213,159.842,159.878,159.813,-0.306201,0.00133315,25,3755,3
68.6237,0.208338,0.00588784,-0.607235,-0.215221,68.6233,68.6294,68.6192,-0.608877,0.000838566,25,3756,3
159.91,0.169473,0.013735,-0.305329,-0.175067,159.909,159.923,159.896,-0.305739,0.000838566,25,3757,3
68.5964,0.325678,0.0141813,-0.60706,-0.336455,68.5954,68.6101,68.5856,-0.611001,0.00133315,25,3758,3
159.846,0.264806,0.0330168,-0.30522,-0.273554,159.844,159.878,159.813,-0.306201,0.00133315,25,3759,3
228.431,0.116703,0.0195422,-0.128623,-0.128853,228.428,228.449,228.41,-0.128763,0.000419283,25,3760,3
274.156,0.0754663,0.0233967,-0.0495691,-0.0833535,274.151,274.177,274.13,-0.0496204,0.000419283,25,3761,3
228.342,0.182345,0.0468639,-0.128872,-0.201252,228.333,228.385,228.291,-0.129207,0.000666576,25,3762,3
274.049,0.118035,0.0561588,-0.0502438,-0.130289,274.038,274.1,273.987,-0.0503645,0.000666576,25,3763,3
228.43,0.120921,0.0196262,-0.128623,-0.124899,228.429,228.449,228.41,-0.128764,0.000419283,25,3764,3
274.154,0.0782149,0.0234965,-0.049571,-0.0807747,274.153,274.177,274.13,-0.0496223,0.000419283,25,3765,3
228.339,0.188895,0.0470645,-0.128872,-0.195124,228.336,228.385,228.291,-0.129207,0.000666576,25,3766,3
274.045,0.122291,0.0563996,-0.0502437,-0.12631,274.041,274.1,273.987,-0.0503645,0.000666576,25,3767,3
308.474,0.0399396,0.0262242,-0.0128831,-0.0441489,308.469,308.498,308.445,-0.0128969,0.000209641,25,3768,3
331.369,0.013764,0.0280362,-0.00186489,-0.0152726,331.363,331.394,331.338,-0.00186798,0.000209641,25,3769,3
308.354,0.0626375,0.0632577,-0.013774,-0.0691565,308.341,308.411,308.284,-0.0138049,0.000333288,25,3770,3
331.24,0.021439,0.067766,-0.00213332,-0.0236933,331.226,331.301,331.165,-0.00213864,0.000333288,25,3771,3
308.472,0.0414217,0.026341,-0.0128778,-0.0427628,308.471,308.498,308.445,-0.0128915,0.000209641,25,3772,3
331.367,0.0143156,0.0281506,-0.00186569,-0.0147625,331.365,331.394,331.338,-0.00186879,0.000209641,25,3773,3
308.349,0.06491,0.0635272,-0.0137744,-0.0670328,308.345,308.411,308.284,-0.0138053,0.000333288,25,3774,3
331.235,0.022238,0.0680612,-0.00213514,-0.0229459,331.231,331.301,331.165,-0.00214046,0.000333288,25,3775,3
-250.588,0.22672,-0.127534,-1.61581,-0.2502,-250.563,-1.61507,-250.448,-250.704,0.00830233,25,3776,3
-68.156,0.484257,-0.0349404,-1.10928,-0.534354,-68.1491,-0.140948,-68.121,-69.1523,0.00830233,25,3777,3
-250.125,0.331598,-0.269848,-1.61445,-0.36614,-250.071,-1.61289,-249.828,-250.369,0.0122607,25,3778,3
-68.0294,0.707385,-0.0735475,-1.10793,-0.78083,-68.015,-0.0848245,-67.9562,-69.1113,0.0122607,25,3779,3
-250.58,0.234835,-0.128083,-1.6158,-0.242598,-250.571,-1.61507,-250.448,-250.704,0.00830233,25,3780,3
-68.1537,0.501537,-0.0350902,-1.10928,-0.518169,-68.1514,-0.140948,-68.121,-69.1523,0.00830233,25,3781,3
-250.107,0.343668,-0.27101,-1.61445,-0.354835,-250.089,-1.61289,-249.828,-250.369,0.0122607,25,3782,3
-68.0246,0.732893,-0.0738626,-1.10793,-0.756939,-68.0198,-0.0848245,-67.9562,-69.1113,0.0122607,25,3783,3
68.5293,0.493086,0.0351248,-0.60705,-0.54411,68.5223,68.5611,68.5003,-0.616817,0.00415116,25,3784,3
159.69,0.400823,0.0815738,-0.304829,-0.442301,159.674,159.764,159.603,-0.30726,0.00415116,25,3785,3
68.4025,0.720423,0.0737124,-0.608432,-0.795208,68.388,68.4693,68.3418,-0.629114,0.00613036,25,3786,3
159.395,0.586434,0.172034,-0.306771,-0.647351,159.361,159.55,159.21,-0.311931,0.00613036,25,3787,3
68.527,0.510695,0.0352756,-0.60705,-0.527617,68.5246,68.5611,68.5003,-0.616817,0.00415116,25,3788,3
159.685,0.415138,0.0819246,-0.304829,-0.428893,159.68,159.764,159.603,-0.30726,0.00415116,25,3789,3
68.3977,0.746387,0.0740287,-0.608432,-0.77089,68.3928,68.4693,68.3418,-0.629114,0.00613036,25,3790,3
159.383,0.60761,0.172773,-0.306771,-0.627518,159.372,159.55,159.21,-0.311931,0.00613036,25,3791,3
228.117,0.285677,0.116231,-0.128335,-0.315247,228.094,228.223,227.99,-0.129164,0.00207558,25,3792,3
273.779,0.184904,0.139201,-0.0499424,-0.204041,273.752,273.905,273.626,-0.0502405,0.00207558,25,3793,3
227.694,0.418796,0.246079,-0.13139,-0.462345,227.645,227.917,227.424,-0.133158,0.00306518,25,3794,3
273.271,0.27128,0.295514,-0.052608,-0.299538,273.212,273.539,272.945,-0.053245,0.00306518,25,3795,3
228.11,0.295887,0.116731,-0.128335,-0.305683,228.102,228.223,227.99,-0.129164,0.00207558,25,3796,3
273.77,0.19151,0.1398,-0.0499424,-0.197853,273.761,273.905,273.626,-0.0502405,0.00207558,25,3797,3
227.678,0.433965,0.247135,-0.13139,-0.448138,227.661,227.917,227.424,-0.133158,0.00306518,25,3798,3
273.251,0.281154,0.296784,-0.052608,-0.29029,273.232,273.539,272.945,-0.053245,0.00306518,25,3799,3
308.05,0.0981914,0.156541,-0.0136446,-0.108348,308.02,308.192,307.878,-0.0137203,0.00103779,25,3800,3
330.915,0.0335894,0.16767,-0.000887275,-0.0370668,330.881,331.067,330.729,-0.000899239,0.00103779,25,3801,3
307.481,0.142454,0.332077,-0.0138718,-0.157363,307.415,307.782,307.114,-0.0140302,0.00153259,25,3802,3
330.309,0.0457286,0.353201,0.00251103,-0.0506569,330.24,330.63,329.92,0.00248759,0.00153259,25,3803,3
308.04,0.101693,0.157215,-0.0136445,-0.105068,308.03,308.192,307.878,-0.0137202,0.00103779,25,3804,3
330.903,0.0347902,0.168395,-0.000887173,-0.0359423,330.893,331.067,330.729,-0.000899137,0.00103779,25,3805,3
307.459,0.14771,0.333506,-0.0138718,-0.152441,307.437,307.782,307.114,-0.0140302,0.00153259,25,3806,3
330.286,0.0475577,0.354733,0.00251104,-0.0489438,330.263,330.63,329.92,0.00248759,0.00153259,25,3807,3
-249.029,0.495797,-0.606556,-1.61811,-0.54738,-248.909,-1.61457,-248.363,-249.579,0.0363966,25,3808,3
-67.7288,1.05719,-0.166494,-1.10822,-1.16683,-67.6961,0.0252236,-67.5627,-68.9956,0.0363966,25,3809,3
-247.035,0.692999,-1.22075,-1.63049,-0.766335,-246.794,-1.62348,-245.695,-248.142,0.0522301,25,3810,3
-67.1706,1.51796,-0.339069,-1.10017,-1.67668,-67.104,0.21191,-66.8331,-68.7536,0.0522301,25,3811,3
-248.989,0.513781,-0.609178,-1.61811,-0.530536,-248.949,-1.61457,-248.363,-249.579,0.0363966,25,3812,3
-67.7179,1.09519,-0.167208,-1.10822,-1.13124,-67.7069,0.0252236,-67.5627,-68.9956,0.0363966,25,3813,3
-246.955,0.71937,-1.22604,-1.63049,-0.741636,-246.875,-1.62348,-245.695,-248.142,0.0522301,25,3814,3
-67.1485,1.57381,-0.340517,-1.10017,-1.62437,-67.1261,0.21191,-66.8331,-68.7536,0.0522301,25,3815,3
68.1013,1.0754,0.166807,-0.60839,-1.18699,68.0684,68.2525,67.9639,-0.655077,0.0181983,25,3816,3
158.695,0.875776,0.386976,-0.306996,-0.966647,158.619,159.046,158.28,-0.318676,0.0181983,25,3817,3
67.5456,1.54174,0.338244,-0.612844,-1.70298,67.479,67.8523,67.2683,-0.708879,0.0261151,25,3818,3
157.402,1.25508,0.786489,-0.314018,-1.38652,157.248,158.115,156.559,-0.338091,0.0261151,25,3819,3
68.0903,1.11411,0.167524,-0.60839,-1.15073,68.0794,68.2525,67.9639,-0.655077,0.0181983,25,3820,3
158.67,0.907299,0.388643,-0.306996,-0.937122,158.644,159.046,158.28,-0.318676,0.0181983,25,3821,3
67.5234,1.5985,0.339696,-0.612844,-1.64982,67.5011,67.8523,67.2683,-0.708879,0.0261151,25,3822,3
157.351,1.30147,0.78987,-0.314018,-1.34307,157.299,158.115,156.559,-0.338091,0.0261151,25,3823,3
226.695,0.626971,0.552752,-0.133784,-0.692034,226.586,227.196,226.089,-0.13781,0.00909915,25,3824,3
272.071,0.407502,0.663864,-0.0542558,-0.449811,271.94,272.673,271.34,-0.0557191,0.00909915,25,3825,3
224.854,0.891677,1.12364,-0.132028,-0.985381,224.633,225.873,223.622,-0.140226,0.0130575,25,3826,3
269.885,0.564283,1.34054,-0.0379223,-0.624065,269.62,271.1,268.408,-0.0407428,0.0130575,25,3827,3
226.658,0.649546,0.555132,-0.133784,-0.67089,226.622,227.196,226.089,-0.13781,0.00909915,25,3828,3
272.027,0.422196,0.666727,-0.0542558,-0.436049,271.984,272.673,271.34,-0.0557191,0.00909915,25,3829,3
224.78,0.924953,1.12848,-0.132028,-0.954215,224.707,225.873,223.622,-0.140226,0.0130575,25,3830,3
269.796,0.585823,1.34634,-0.0379223,-0.60389,269.709,271.1,268.408,-0.0407428,0.0130575,25,3831,3
306.132,0.215469,0.746223,-0.0114495,-0.237905,305.985,306.808,305.309,-0.0118172,0.00454957,25,3832,3
328.864,0.0698594,0.797374,0.0132138,-0.0772791,328.706,329.587,327.984,0.013163,0.00454957,25,3833,3
303.704,0.277483,1.49268,0.0191474,-0.307633,303.409,305.057,302.057,0.0185404,0.00652877,25,3834,3
326.294,0.0657335,1.5794,0.0535293,-0.0741041,325.98,327.724,324.55,0.0534256,0.00652877,25,3835,3
306.083,0.223303,0.74945,-0.0114495,-0.230567,306.034,306.808,305.309,-0.0118172,0.00454957,25,3836,3
328.811,0.0725446,0.800845,0.0132138,-0.0747642,328.759,329.587,327.984,0.013163,0.00454957,25,3837,3
303.605,0.288826,1.49917,0.0191474,-0.297009,303.508,305.057,302.057,0.0185404,0.00652877,25,3838,3
326.188,0.0696462,1.58632,0.0535294,-0.0704394,326.086,327.724,324.55,0.0534256,0.00652877,25,3839,3
-242.421,1.02723,-2.62859,-1.65033,-1.13517,-241.901,-1.63431,-239.535,-244.803,0.151961,25,3840,3
-65.903,2.21061,-0.72761,-1.09101,-2.4408,-65.7599,0.536719,-65.1841,-68.1066,0.151961,25,3841,3
-234.179,1.34548,-5.18689,-1.83141,-1.49292,-233.151,-1.8016,-228.482,-238.879,0.215295,25,3842,3
-63.5785,3.21444,-1.47243,-1.15179,-3.55478,-63.2882,1.01366,-62.1477,-66.8844,0.215295,25,3843,3
-242.247,1.06555,-2.64002,-1.65033,-1.09928,-242.076,-1.63431,-239.535,-244.803,0.151961,25,3844,3
-65.8555,2.291,-0.730726,-1.09101,-2.36551,-65.8074,0.536719,-65.1841,-68.1066,0.151961,25,3845,3
-233.833,1.40172,-5.2096,-1.83141,-1.44024,-233.498,-1.8016,-228.482,-238.879,0.215295,25,3846,3
-63.4816,3.33693,-1.47878,-1.15179,-3.44006,-63.385,1.01366,-62.1477,-66.8844,0.215295,25,3847,3
66.2769,2.24806,0.725509,-0.621816,-2.4822,66.1339,66.9347,65.6886,-0.834277,0.0759804,25,3848,3
154.448,1.83407,1.6886,-0.328569,-2.02526,154.115,155.978,152.638,-0.382616,0.0759804,25,3849,3
63.9595,3.28546,1.46496,-0.554138,-3.63311,63.6704,65.2875,62.8189,-1.03072,0.107648,25,3850,3
149.075,2.61092,3.39476,-0.179819,-2.88886,148.404,152.151,145.443,-0.295239,0.107648,25,3851,3
66.2292,2.32985,0.728631,-0.621816,-2.40559,66.1816,66.9347,65.6886,-0.834277,0.0759804,25,3852,3
154.337,1.90097,1.69588,-0.328569,-1.9626,154.226,155.978,152.638,-0.382616,0.0759804,25,3853,3
63.8628,3.41046,1.4713,-0.554138,-3.51605,63.7671,65.2875,62.8189,-1.03072,0.107648,25,3854,3
148.85,2.71191,3.40948,-0.179819,-2.79427,148.629,152.151,145.443,-0.295239,0.107648,25,3855,3
220.642,1.31057,2.40822,-0.140678,-1.4475,220.167,222.825,218.003,-0.159462,0.0379902,25,3856,3
264.842,0.840029,2.87795,-0.0259876,-0.928321,264.274,267.45,261.672,-0.0326347,0.0379902,25,3857,3
213.05,1.77314,4.79714,0.0611439,-1.96454,212.101,217.397,207.79,0.0256068,0.0538238,25,3858,3
255.844,1.04666,5.67577,0.19515,-1.16311,254.719,260.986,249.587,0.184598,0.0538238,25,3859,3
220.484,1.35869,2.41863,-0.140678,-1.40244,220.326,222.825,218.003,-0.159462,0.0379902,25,3860,3
264.652,0.871393,2.89044,-0.0259876,-0.898945,264.464,267.45,261.672,-0.0326347,0.0379902,25,3861,3
212.731,1.84437,4.81801,0.0611439,-1.89783,212.42,217.397,207.79,0.0256068,0.0538238,25,3862,3
255.465,1.09216,5.70059,0.19515,-1.12049,255.098,260.986,249.587,0.184598,0.0538238,25,3863,3
298.041,0.425139,3.22026,0.0572082,-0.470631,297.403,300.959,294.487,0.0557108,0.0189951,25,3864,3
320.215,0.112047,3.43635,0.1189,-0.125281,319.534,323.328,316.421,0.118675,0.0189951,25,3865,3
288.021,0.431456,6.30242,0.280866,-0.484486,286.77,293.73,281.063,0.278459,0.0269119,25,3866,3
309.536,-0.0106206,6.69186,0.332781,0.00318225,308.206,315.597,302.148,0.330161,0.0269119,25,3867,3
297.826,0.441818,3.2343,0.0572082,-0.455009,297.618,300.959,294.487,0.0557108,0.0189951,25,3868,3
319.985,0.117684,3.45142,0.1189,-0.120001,319.764,323.328,316.421,0.118675,0.0189951,25,3869,3
287.598,0.45523,6.33011,0.280866,-0.462219,287.193,293.73,281.063,0.278459,0.0269119,25,3870,3
309.085,-0.00248082,6.7214,0.332781,0.010806,308.657,315.597,302.148,0.330161,0.0269119,25,3871,3
-215.059,2.11731,-10.8887,-1.84793,-2.33621,-212.906,-1.7565,-203.13,-224.927,0.620593,25,3872,3
-58.4226,4.49462,-2.99771,-1.14883,-4.9595,-57.8309,1.85108,-55.603,-63.6504,0.620593,25,3873,3
-181.189,3.03607,-21.219,-1.57028,-3.34236,-177.01,-1.32493,-158.019,-200.425,0.873929,25,3874,3
-49.2556,6.20712,-5.78221,-1.09957,-6.84138,-48.1168,3.31703,-44.0323,-57.7567,0.873929,25,3875,3
-214.337,2.19273,-10.9361,-1.84793,-2.26557,-213.629,-1.7565,-203.13,-224.927,0.620593,25,3876,3
-58.2247,4.65492,-3.01068,-1.14883,-4.80937,-58.0288,1.85108,-55.603,-63.6504,0.620593,25,3877,3
-179.797,3.13663,-21.3101,-1.57028,-3.24817,-178.401,-1.32493,-158.019,-200.425,0.873929,25,3878,3
-48.8764,6.42077,-5.80706,-1.09957,-6.64128,-48.496,3.31703,-44.0323,-57.7567,0.873929,25,3879,3
58.7691,4.57686,3.00299,-0.561027,-5.0502,58.1762,61.5015,56.577,-1.69426,0.310296,25,3880,3
136.964,3.72776,6.98638,-0.190504,-4.11333,135.584,143.296,129.557,-0.495453,0.310296,25,3881,3
49.5554,6.31691,5.80354,-0.617072,-6.96252,48.4124,54.8893,45.5802,-3.11891,0.436965,25,3882,3
115.466,5.18343,13.5261,-0.329553,-5.71185,112.802,127.728,101.286,-1.07573,0.436965,25,3883,3
58.5707,4.74005,3.01599,-0.561027,-4.89736,58.3746,61.5015,56.577,-1.69426,0.310296,25,3884,3
136.502,3.86071,7.01667,-0.190504,-3.98881,136.046,143.296,129.557,-0.495453,0.310296,25,3885,3
49.1748,6.53447,5.82849,-0.617072,-6.75875,48.7929,54.8893,45.5802,-3.11891,0.436965,25,3886,3
114.579,5.3606,13.5842,-0.329553,-5.5459,113.689,127.728,101.286,-1.07573,0.436965,25,3887,3
195.711,2.6649,9.94835,0.0540188,-2.94056,193.746,204.727,184.838,-0.054076,0.155148,25,3888,3
234.972,1.72605,11.8945,0.199484,-1.90456,232.62,245.751,221.881,0.159832,0.155148,25,3889,3
164.951,3.76538,19.3174,-0.167575,-4.14715,161.147,182.463,143.916,-0.448808,0.218482,25,3890,3
197.988,2.5137,23.1741,-0.100228,-2.76602,193.425,218.997,172.53,-0.214318,0.218482,25,3891,3
195.053,2.75997,9.99153,0.0540188,-2.85152,194.405,204.727,184.838,-0.054076,0.155148,25,3892,3
234.183,1.78759,11.9463,0.199484,-1.84692,233.409,245.751,221.881,0.159832,0.155148,25,3893,3
163.685,3.892,19.4005,-0.167575,-4.02856,162.413,182.463,143.916,-0.448808,0.218482,25,3894,3
196.469,2.59569,23.2737,-0.100228,-2.68923,194.944,218.997,172.53,-0.214318,0.218482,25,3895,3
264.47,0.91084,13.3393,0.298733,-1.00497,261.831,276.558,249.754,0.288463,0.0775741,25,3896,3
284.174,0.306067,14.2901,0.363304,-0.337602,281.347,297.123,268.4,0.361281,0.0775741,25,3897,3
222.798,1.42713,26.0621,-0.0712697,-1.56718,217.665,246.424,194.075,-0.107996,0.109241,25,3898,3
239.362,0.621013,27.9819,-0.0626074,-0.677913,233.851,264.729,208.494,-0.0720732,0.109241,25,3899,3
263.584,0.943245,13.3974,0.298733,-0.974617,262.718,276.558,249.754,0.288463,0.0775741,25,3900,3
283.224,0.316862,14.3524,0.363304,-0.327492,282.297,297.123,268.4,0.361281,0.0775741,25,3901,3
221.089,1.47048,26.1741,-0.0712697,-1.52657,219.374,246.424,194.075,-0.107996,0.109241,25,3902,3
237.527,0.635845,28.1022,-0.0626074,-0.664021,235.686,264.729,208.494,-0.0720732,0.109241,25,3903,3
-149.591,3.48373,-31.061,-1.41578,-3.85084,-143.478,-1.02598,-115.708,-177.751,0.531966,25,3904,3
-40.7103,7.71105,-8.41997,-1.05601,-8.5144,-39.0525,4.93065,-33.4871,-52.2624,0.531966,25,3905,3
-124.196,4.01775,-38.8979,-1.57626,-4.43132,-116.534,-0.853127,-81.9947,-159.458,0.5953,25,3906,3
-33.7588,8.50274,-10.5834,-1.1217,-9.37934,-31.6737,6.4507,-25.3872,-47.6177,0.5953,25,3907,3
-147.559,3.61475,-31.1942,-1.41578,-3.72813,-145.511,-1.02598,-115.708,-177.751,0.531966,25,3908,3
-40.1586,7.99185,-8.45613,-1.05601,-8.25141,-39.6042,4.93065,-33.4871,-52.2624,0.531966,25,3909,3
-121.644,4.15906,-39.0652,-1.57626,-4.29897,-119.086,-0.853127,-81.9947,-159.458,0.5953,25,3910,3
-33.064,8.80316,-10.629,-1.1217,-9.09797,-32.3685,6.4507,-25.3872,-47.6177,0.5953,25,3911,3
40.9673,7.86763,8.45744,-0.667099,-8.68717,39.3022,48.6346,35.8873,-4.91951,0.265983,25,3912,3
95.4242,6.34208,19.7301,-0.440408,-7.0041,91.5402,113.311,74.9484,-1.73549,0.265983,25,3913,3
33.9966,8.66063,10.6248,-0.600064,-9.55358,31.9035,43.6282,28.485,-6.81318,0.29765,25,3914,3
79.1916,7.05829,24.7688,-0.295367,-7.78564,74.3122,101.645,54.0819,-2.51844,0.29765,25,3915,3
40.4133,8.15401,8.49375,-0.667099,-8.41896,39.8562,48.6346,35.8873,-4.91951,0.265983,25,3916,3
94.1321,6.57431,19.8148,-0.440408,-6.78659,92.8323,113.311,74.9484,-1.73549,0.265983,25,3917,3
33.2992,8.9667,10.6705,-0.600064,-9.26692,32.6009,43.6282,28.485,-6.81318,0.29765,25,3918,3
77.566,7.30733,24.8753,-0.295367,-7.55238,75.9377,101.645,54.0819,-2.51844,0.29765,25,3919,3
136.269,4.44671,28.2204,-0.31911,-4.91311,130.715,161.854,105.572,-0.761153,0.132991,25,3920,3
163.489,2.79684,33.9168,-0.275319,-3.09307,156.814,194.238,126.218,-0.428484,0.132991,25,3921,3
113.128,5.0548,35.3832,-0.13243,-5.57518,106.158,145.203,74.8942,-0.944825,0.148825,25,3922,3
135.771,3.28907,42.4695,-0.0854123,-3.62726,127.406,174.271,89.2078,-0.387566,0.148825,25,3923,3
134.422,4.61176,28.3415,-0.31911,-4.75852,132.562,161.854,105.572,-0.761153,0.132991,25,3924,3
161.27,2.90353,34.0622,-0.275319,-2.99315,159.033,194.238,126.218,-0.428484,0.132991,25,3925,3
110.806,5.23264,35.5353,-0.13243,-5.40862,108.479,145.203,74.8942,-0.944825,0.148825,25,3926,3
132.985,3.40438,42.6521,-0.0854123,-3.51926,130.192,174.271,89.2078,-0.387566,0.148825,25,3927,3
183.906,1.38977,38.2043,-0.262915,-1.54104,176.388,218.543,141.787,-0.298264,0.0664957,25,3928,3
197.52,0.367979,41.0713,-0.266031,-0.414136,189.439,234.756,152.209,-0.272065,0.0664957,25,3929,3
152.764,1.75974,47.7907,-0.0867472,-1.94033,143.351,196.088,100.107,-0.166436,0.0744125,25,3930,3
164.096,0.626902,51.3429,-0.112946,-0.691019,153.984,210.64,107.453,-0.12588,0.0744125,25,3931,3
181.407,1.44685,38.3681,-0.262915,-1.48758,178.887,218.543,141.787,-0.298264,0.0664957,25,3932,3
194.834,0.389182,41.2474,-0.266031,-0.394277,192.125,234.756,152.209,-0.272065,0.0664957,25,3933,3
149.629,1.82109,47.9961,-0.0867472,-1.88287,146.486,196.088,100.107,-0.166436,0.0744125,25,3934,3
160.729,0.648538,51.5636,-0.112946,-0.670754,157.351,210.64,107.453,-0.12588,0.0744125,25,3935,3
-103.53,4.27504,-45.2625,-1.54698,-4.72162,-94.6154,-0.359558,-54.7708,-144.562,0.3214,25,3936,3
-28.1413,9.24347,-12.3035,-1.0902,-10.2031,-25.7174,8.43275,-19.497,-43.8846,0.3214,25,3937,3
-88.6122,4.59836,-49.8769,-1.57184,-5.0733,-78.7863,0.482249,-35.6261,-133.826,0.337234,25,3938,3
-24.128,9.69754,-13.5047,-0.96696,-10.6991,-21.4675,10.3562,-15.778,-41.1406,0.337234,25,3939,3
-100.561,4.43191,-45.4571,-1.54698,-4.5747,-97.5843,-0.359558,-54.7708,-144.562,0.3214,25,3940,3
-27.3337,9.57668,-12.3564,-1.0902,-9.891,-26.525,8.43275,-19.497,-43.8846,0.3214,25,3941,3
-85.3386,4.76169,-50.0914,-1.57184,-4.92033,-82.0599,0.482249,-35.6261,-133.826,0.337234,25,3942,3
-23.2415,10.0419,-13.5628,-0.96696,-10.3765,-22.3539,10.3562,-15.778,-41.1406,0.337234,25,3943,3
28.3626,9.40919,12.3554,-0.602168,-10.386,25.9287,39.5631,23.2742,-9.14808,0.1607,25,3944,3
66.0542,7.63684,28.8012,-0.324174,-8.4303,60.3805,92.1631,37.8487,-3.9012,0.1607,25,3945,3
24.2092,9.77968,13.6958,-0.440971,-10.7898,21.511,36.6307,19.778,-11.1295,0.168617,25,3946,3
56.5358,7.90177,31.7771,-0.184687,-8.71772,50.2755,85.3423,26.8294,-5.54508,0.168617,25,3947,3
27.5518,9.74835,12.4085,-0.602168,-10.0683,26.7395,39.5631,23.2742,-9.14808,0.1607,25,3948,3
64.1641,7.91278,28.9251,-0.324174,-8.17186,62.2707,92.1631,37.8487,-3.9012,0.1607,25,3949,3
23.3102,10.1271,13.7548,-0.440971,-10.4644,22.41,36.6307,19.778,-11.1295,0.168617,25,3950,3
54.4501,8.18225,31.9138,-0.184687,-8.45501,52.3613,85.3423,26.8294,-5.54508,0.168617,25,3951,3
94.3546,5.41818,41.149,-0.177743,-5.98237,86.2488,131.657,50.2832,-1.51472,0.0803501,25,3952,3
113.216,3.46136,49.4108,-0.12683,-3.82368,103.484,158.009,59.1712,-0.606675,0.0803501,25,3953,3
80.8567,5.61585,45.322,-0.0594784,-6.19563,71.9281,121.942,33.0485,-2.26519,0.0843085,25,3954,3
97.1077,3.63038,54.3544,-0.0218075,-4.0052,86.3997,146.381,37.9567,-0.852026,0.0843085,25,3955,3
91.6545,5.61519,41.326,-0.177743,-5.79784,88.9489,131.657,50.2832,-1.51472,0.0803501,25,3956,3
109.975,3.58911,49.6233,-0.12683,-3.70403,106.725,158.009,59.1712,-0.606675,0.0803501,25,3957,3
77.882,5.81507,45.517,-0.0594784,-6.00904,74.9028,121.942,33.0485,-2.26519,0.0843085,25,3958,3
93.5402,3.75919,54.5882,-0.0218075,-3.88456,89.9672,146.381,37.9567,-0.852026,0.0843085,25,3959,3
127.35,1.77584,55.6306,-0.114366,-1.96464,116.394,177.781,66.0765,-0.22894,0.040175,25,3960,3
136.75,0.546596,59.8,-0.123901,-0.608945,124.974,190.962,70.7779,-0.139739,0.040175,25,3961,3
109.304,1.92217,61.1388,-0.0182073,-2.12072,97.2597,164.727,42.0476,-0.229328,0.0421542,25,3962,3
117.423,0.663305,65.6749,-0.0443346,-0.732591,104.486,176.959,44.9811,-0.075129,0.0421542,25,3963,3
123.702,1.84428,55.8697,-0.114366,-1.90053,120.042,177.781,66.0765,-0.22894,0.040175,25,3964,3
132.83,0.571892,60.0569,-0.123901,-0.585253,128.894,190.962,70.7779,-0.139739,0.040175,25,3965,3
105.291,1.99047,61.4018,-0.0182073,-2.05675,101.272,164.727,42.0476,-0.229328,0.0421542,25,3966,3
113.114,0.68764,65.9574,-0.0443346,-0.709799,108.796,176.959,44.9811,-0.075129,0.0421542,25,3967,3
-76.8562,4.84784,-53.5626,-1.59538,-5.35008,-66.3045,1.87701,-21.2214,-125.412,0.174555,25,3968,3
-21.2278,10.1387,-14.3583,-1.12098,-11.1874,-18.3991,12.1169,-13.63,-39.2347,0.174555,25,3969,3
-68.8818,4.68118,-56.0863,-1.96392,-5.16565,-57.8327,3.33661,-12.29,-119.725,0.178513,25,3970,3
-19.2736,10.0687,-15.2566,-2.8317,-11.1097,-16.2683,12.4143,-12.4406,-38.3473,0.178513,25,3971,3
-73.341,5.02156,-53.793,-1.59538,-5.18737,-69.8197,1.87701,-21.2214,-125.412,0.174555,25,3972,3
-20.2853,10.5003,-14.4201,-1.12098,-10.8487,-19.3415,12.1169,-13.63,-39.2347,0.174555,25,3973,3
-65.2007,4.84842,-56.3276,-1.96392,-5.00901,-61.5138,3.33661,-12.29,-119.725,0.178513,25,3974,3
-18.2725,10.4274,-15.3222,-2.8317,-10.7738,-17.2694,12.4143,-12.4406,-38.3473,0.178513,25,3975,3
20.7216,10.1205,14.8453,-0.542244,-11.1676,17.7968,34.1849,17.1995,-13.4082,0.0872773,25,3976,3
49.0124,8.05338,34.1441,-0.178736,-8.88677,42.2853,79.9641,18.9896,-7.83476,0.0872773,25,3977,3
18.1694,10.6714,15.26,-2.82494,-11.7763,15.1611,32.0154,15.2756,-16.7854,0.0892564,25,3978,3
43.3127,8.83923,35.7443,-1.82403,-9.75613,36.2668,75.7153,14.5171,-12.4769,0.0892564,25,3979,3
19.747,10.4818,14.9092,-0.542244,-10.8292,18.7714,34.1849,17.1995,-13.4082,0.0872773,25,3980,3
46.7707,8.34103,34.291,-0.178736,-8.61736,44.5269,79.9641,18.9896,-7.83476,0.0872773,25,3981,3
17.1658,11.0532,15.3258,-2.82494,-11.4188,16.1647,32.0154,15.2756,-16.7854,0.0892564,25,3982,3
40.9625,9.15713,35.8984,-1.82403,-9.45839,38.617,75.7153,14.5171,-12.4769,0.0892564,25,3983,3
70.4562,5.61328,48.4993,-0.0263066,-6.1942,60.901,114.421,20.4409,-3.531,0.0436386,25,3984,3
84.8455,3.56045,58.0287,-0.00575912,-3.92955,73.4134,137.45,22.1539,-1.35048,0.0436386,25,3985,3
62.6843,6.13908,50.9091,-0.751755,-6.77682,52.6493,108.833,12.8367,-7.08792,0.0446282,25,3986,3
76.1688,3.74269,60.6654,-0.216219,-4.13114,64.2132,131.16,12.0327,-3.02718,0.0446282,25,3987,3
67.2723,5.81381,48.708,-0.0263066,-6.00638,64.0849,114.421,20.4409,-3.531,0.0436386,25,3988,3
81.0365,3.68828,58.2783,-0.00575912,-3.80983,77.2223,137.45,22.1539,-1.35048,0.0436386,25,3989,3
59.3372,6.36079,51.1284,-0.751755,-6.56916,55.9964,108.833,12.8367,-7.08792,0.0446282,25,3990,3
72.1828,3.87751,60.9267,-0.216219,-4.00487,68.1992,131.16,12.0327,-3.02718,0.0446282,25,3991,3
95.6587,1.83553,65.1785,-0.00604522,-2.02772,82.8183,154.746,24.0637,-0.338228,0.0218193,25,3992,3
102.823,0.612468,69.9767,-0.0522838,-0.677655,89.0389,166.259,25.6558,-0.105037,0.0218193,25,3993,3
86.6087,1.80812,67.7662,0.032471,-1.99495,73.2584,148.037,12.4942,-0.631831,0.0223141,25,3994,3
93.5808,0.608523,72.4263,-0.138171,-0.675225,79.3158,159.24,13.8722,-0.353987,0.0223141,25,3995,3
91.3808,1.90333,65.4589,-0.00604522,-1.96422,87.0963,154.746,24.0637,-0.338228,0.0218193,25,3996,3
98.2317,0.636147,70.2777,-0.0522838,-0.655477,93.6307,166.259,25.6558,-0.105037,0.0218193,25,3997,3
82.1608,1.87242,68.0577,0.032471,-1.93473,77.7063,148.037,12.4942,-0.631831,0.0223141,25,3998,3
88.8303,0.63398,72.7376,-0.138171,-0.651382,84.0662,159.24,13.8722,-0.353987,0.0223141,25,3999,3
-63.3559,3.95456,-57.6869,-2.4416,-4.36292,-52.0078,5.09622,-7.24401,-115.657,0.0922591,25,4000,3
-17.5912,8.84298,-16.3991,-5.81057,-9.75706,-14.3646,10.9194,-11.0503,-37.6354,0.0922591,25,4001,3
-60.3117,3.07169,-58.2465,-2.38451,-3.38849,-48.8539,6.59699,-5.02629,-113.121,0.0932817,25,4002,3
-16.4803,6.63332,-17.0766,-7.54231,-7.31685,-13.1206,8.50696,-9.22007,-36.4301,0.0932817,25,4003,3
-59.586,4.09494,-57.934,-2.4416,-4.23144,-55.7777,5.09622,-7.24401,-115.657,0.0922591,25,4004,3
-16.5189,9.15781,-16.4694,-5.81057,-9.46219,-15.4369,10.9194,-11.0503,-37.6354,0.0922591,25,4005,3
-56.5056,3.18034,-58.496,-2.38451,-3.28673,-52.66,6.59699,-5.02629,-113.121,0.0932817,25,4006,3
-15.3639,6.86734,-17.1497,-7.54231,-7.09766,-14.237,8.50696,-9.22007,-36.4301,0.0932817,25,4007,3
16.8736,10.5955,14.2862,-8.80299,-11.6918,14.0658,29.8303,12.7352,-20.429,0.0461296,25,4008,3
39.0382,10.6771,35.6976,-8.82122,-11.7856,32.0205,71.4186,11.9179,-21.0991,0.0461296,25,4009,3
16.9295,7.86346,12.696,-14.6672,-8.66991,14.434,28.4479,8.89482,-20.6464,0.0466408,25,4010,3
38.0921,9.16035,32.7489,-21.789,-10.0849,31.66,67.8596,8.50862,-28.405,0.0466408,25,4011,3
15.9425,10.9738,14.3473,-8.80299,-11.3375,14.9969,29.8303,12.7352,-20.429,0.0461296,25,4012,3
36.71,11.0621,35.8501,-8.82122,-11.4251,34.3487,71.4186,11.9179,-21.0991,0.0461296,25,4013,3
16.1018,8.13706,12.7502,-14.6672,-8.41366,15.2616,28.4479,8.89482,-20.6464,0.0466408,25,4014,3
35.9621,9.46415,32.8885,-21.789,-9.80032,33.79,67.8596,8.50862,-28.405,0.0466408,25,4015,3
55.4128,9.14535,52.5484,-6.07199,-10.1024,45.0807,103.091,9.46139,-18.1307,0.0230648,25,4016,3
67.285,6.03346,63.5844,-2.59873,-6.67642,54.7794,124.984,6.58933,-12.1073,0.0230648,25,4017,3
52.0141,11.4627,48.9193,-27.7074,-12.5971,42.4144,96.6849,7.30294,-37.2668,0.0233204,25,4018,3
59.2093,14.1369,61.5184,-29.4679,-15.5023,47.1367,116.044,5.96275,-45.1288,0.0233204,25,4019,3
51.9839,9.48263,52.7732,-6.07199,-9.78649,48.5097,103.091,9.46139,-18.1307,0.0230648,25,4020,3
63.1323,6.26752,63.8565,-2.59873,-6.4572,58.932,124.984,6.58933,-12.1073,0.0230648,25,4021,3
48.8407,11.8204,49.1273,-27.7074,-12.2621,45.5878,96.6849,7.30294,-37.2668,0.0233204,25,4022,3
55.2181,14.5445,61.78,-29.4679,-15.1206,51.1279,116.044,5.96275,-45.1288,0.0233204,25,4023,3
78.2076,2.62769,70.4931,-0.676695,-2.92466,64.3328,142.169,5.59575,-5.90138,0.0115324,25,4024,3
85.4643,1.37887,74.6937,-1.61754,-1.53966,70.7685,153.284,8.77274,-7.44193,0.0115324,25,4025,3
62.1517,15.4529,73.485,-26.5077,-16.8997,47.72,131.149,6.07437,-53.8596,0.0116602,25,4026,3
63.214,11.8099,83.0863,-20.0946,-12.8233,46.8442,142.955,6.59839,-59.5896,0.0116602,25,4027,3
73.5934,2.74654,70.7955,-0.676695,-2.81335,68.9471,142.169,5.59575,-5.90138,0.0115324,25,4028,3
80.5808,1.44618,75.0138,-1.61754,-1.47662,75.652,153.284,8.77274,-7.44193,0.0115324,25,4029,3
57.3734,15.8528,73.7982,-26.5077,-16.5252,52.4983,131.149,6.07437,-53.8596,0.0116602,25,4030,3
57.7591,12.0235,83.4438,-20.0946,-12.6233,52.2991,142.955,6.59839,-59.5896,0.0116602,25,4031,3
-250.941,0.0709087,-0.018957,-1.6153,-0.118364,-250.921,-1.61517,-250.909,-250.952,0.00167713,25,4032,3
-68.2525,0.151143,-0.00518385,-1.10911,-0.252226,-68.2469,-0.183943,-68.2445,-69.1802,0.00167713,25,4033,3
-250.854,0.110864,-0.0455956,-1.61512,-0.185034,-250.806,-1.61482,-250.779,-250.882,0.00266631,25,4034,3
-68.2288,0.236128,-0.0124848,-1.10918,-0.394049,-68.2155,-0.170956,-68.2096,-69.173,0.00266631,25,4035,3
-250.94,0.0748222,-0.0195785,-1.6153,-0.115934,-250.922,-1.61518,-250.909,-250.952,0.00167713,25,4036,3
-68.2521,0.159394,-0.00535296,-1.10911,-0.247099,-68.2473,-0.183942,-68.2445,-69.1802,0.00167713,25,4037,3
-250.851,0.11692,-0.0470863,-1.61512,-0.181264,-250.809,-1.61482,-250.779,-250.882,0.00266631,25,4038,3
-68.228,0.248976,-0.0128926,-1.10918,-0.386054,-68.2163,-0.170956,-68.2096,-69.173,0.00266631,25,4039,3
68.6263,0.153966,0.00519568,-0.607235,-0.256943,68.6207,68.6294,68.6192,-0.608877,0.000838566,25,4040,3
159.916,0.125239,0.0121206,-0.305329,-0.209009,159.903,159.923,159.896,-0.305739,0.000838566,25,4041,3
68.6026,0.240699,0.0125147,-0.60706,-0.401662,68.5892,68.6101,68.5856,-0.611001,0.00133315,25,4042,3
159.86,0.195696,0.0291363,-0.30522,-0.326584,159.829,159.878,159.813,-0.306201,0.00133315,25,4043,3
68.6259,0.162373,0.00536557,-0.607236,-0.251718,68.6211,68.6294,68.6192,-0.608878,0.000838566,25,4044,3
159.915,0.13209,0.0125173,-0.305328,-0.204752,159.903,159.923,159.896,-0.305738,0.000838566,25,4045,3
68.6018,0.253783,0.0129234,-0.60706,-0.393521,68.59,68.6101,68.5856,-0.611001,0.00133315,25,4046,3
159.859,0.206351,0.0300881,-0.305221,-0.319953,159.831,159.878,159.813,-0.306201,0.00133315,25,4047,3
228.439,0.0893464,0.017319,-0.128623,-0.149127,228.42,228.449,228.41,-0.128764,0.000419283,25,4048,3
274.164,0.0577788,0.0207347,-0.049571,-0.0964558,274.142,274.177,274.13,-0.0496223,0.000419283,25,4049,3
228.36,0.139585,0.0415329,-0.128872,-0.23296,228.315,228.385,228.291,-0.129207,0.000666576,25,4050,3
274.07,0.0903548,0.0497702,-0.0502437,-0.150815,274.017,274.1,273.987,-0.0503645,0.000666576,25,4051,3
228.438,0.0942575,0.0178858,-0.128623,-0.146076,228.421,228.449,228.41,-0.128763,0.000419283,25,4052,3
274.163,0.0609812,0.0214141,-0.0495691,-0.0944684,274.144,274.177,274.13,-0.0496204,0.000419283,25,4053,3
228.357,0.1472,0.0428897,-0.128872,-0.22822,228.318,228.385,228.291,-0.129207,0.000666576,25,4054,3
274.066,0.0953001,0.0513971,-0.0502438,-0.147735,274.02,274.1,273.987,-0.0503645,0.000666576,25,4055,3
308.484,0.030585,0.0232404,-0.0128778,-0.0510781,308.459,308.498,308.445,-0.0128915,0.000209641,25,4056,3
331.379,0.0105543,0.024846,-0.00186569,-0.0176486,331.352,331.394,331.338,-0.00186879,0.000209641,25,4057,3
308.377,0.0479488,0.0560605,-0.0137744,-0.0800476,308.317,308.411,308.284,-0.0138053,0.000333288,25,4058,3
331.265,0.0164084,0.0600562,-0.00213514,-0.0274191,331.201,331.301,331.165,-0.00214046,0.000333288,25,4059,3
308.482,0.0323074,0.0239988,-0.0128831,-0.0500053,308.461,308.498,308.445,-0.0128969,0.000209641,25,4060,3
331.377,0.0111898,0.0256657,-0.00186489,-0.0172479,331.354,331.394,331.338,-0.00186798,0.000209641,25,4061,3
308.374,0.0505882,0.0578944,-0.013774,-0.0784022,308.321,308.411,308.284,-0.0138049,0.000333288,25,4062,3
331.261,0.0173372,0.062025,-0.00213332,-0.0268408,331.205,331.301,331.165,-0.00213864,0.000333288,25,4063,3
-250.636,0.173552,-0.113016,-1.6158,-0.289623,-250.515,-1.61507,-250.448,-250.704,0.00830233,25,4064,3
-68.1691,0.370705,-0.0309652,-1.10928,-0.61856,-68.136,-0.140948,-68.121,-69.1523,0.00830233,25,4065,3
-250.226,0.253796,-0.239134,-1.61445,-0.423796,-249.97,-1.61289,-249.828,-250.369,0.0122607,25,4066,3
-68.057,0.541461,-0.0651804,-1.10793,-0.903831,-67.9874,-0.0848245,-67.9562,-69.1113,0.0122607,25,4067,3
-250.629,0.182995,-0.116732,-1.61581,-0.283751,-250.523,-1.61507,-250.448,-250.704,0.00830233,25,4068,3
-68.167,0.390811,-0.0319782,-1.10928,-0.606057,-68.138,-0.140948,-68.121,-69.1523,0.00830233,25,4069,3
-250.21,0.26784,-0.246988,-1.61445,-0.415063,-249.986,-1.61289,-249.828,-250.369,0.0122607,25,4070,3
-68.0527,0.571139,-0.0673114,-1.10793,-0.885375,-67.9917,-0.0848245,-67.9562,-69.1113,0.0122607,25,4071,3
68.5424,0.377461,0.0311281,-0.60705,-0.629851,68.5092,68.5611,68.5003,-0.616817,0.00415116,25,4072,3
159.721,0.306833,0.0722896,-0.304829,-0.511998,159.644,159.764,159.603,-0.30726,0.00415116,25,4073,3
68.4301,0.551443,0.0653252,-0.608432,-0.920476,68.3603,68.4693,68.3418,-0.629114,0.00613036,25,4074,3
159.459,0.448874,0.152458,-0.306771,-0.74932,159.296,159.55,159.21,-0.311931,0.00613036,25,4075,3
68.5404,0.397949,0.0321476,-0.60705,-0.61711,68.5112,68.5611,68.5003,-0.616817,0.00415116,25,4076,3
159.716,0.323489,0.0746623,-0.304829,-0.501641,159.648,159.764,159.603,-0.30726,0.00415116,25,4077,3
68.4258,0.581653,0.067464,-0.608432,-0.90169,68.3647,68.4693,68.3418,-0.629114,0.00613036,25,4078,3
159.449,0.473513,0.157453,-0.306771,-0.733999,159.306,159.55,159.21,-0.311931,0.00613036,25,4079,3
228.161,0.218686,0.103001,-0.128335,-0.364922,228.051,228.223,227.99,-0.129164,0.00207558,25,4080,3
273.831,0.141545,0.123357,-0.0499424,-0.236193,273.699,273.905,273.626,-0.0502405,0.00207558,25,4081,3
227.786,0.32055,0.218078,-0.13139,-0.535165,227.553,227.917,227.424,-0.133158,0.00306518,25,4082,3
273.382,0.207631,0.261886,-0.052608,-0.346706,273.102,273.539,272.945,-0.053245,0.00306518,25,4083,3
228.154,0.230567,0.106384,-0.128335,-0.357534,228.058,228.223,227.99,-0.129164,0.00207558,25,4084,3
273.823,0.149232,0.127408,-0.0499424,-0.231413,273.708,273.905,273.626,-0.0502405,0.00207558,25,4085,3
227.772,0.338199,0.225222,-0.13139,-0.52419,227.567,227.917,227.424,-0.133158,0.00306518,25,4086,3
273.364,0.219119,0.27047,-0.052608,-0.339562,273.119,273.539,272.945,-0.053245,0.00306518,25,4087,3
308.109,0.0751673,0.138723,-0.0136445,-0.125422,307.961,308.192,307.878,-0.0137202,0.00103779,25,4088,3
330.977,0.0257132,0.148575,-0.000887173,-0.0429073,330.819,331.067,330.729,-0.000899137,0.00103779,25,4089,3
307.605,0.109017,0.294279,-0.0138718,-0.182131,307.291,307.782,307.114,-0.0140302,0.00153259,25,4090,3
330.442,0.0349673,0.312965,0.00251104,-0.0586048,330.107,330.63,329.92,0.00248759,0.00153259,25,4091,3
308.1,0.0792419,0.14328,-0.0136446,-0.122888,307.97,308.192,307.878,-0.0137203,0.00103779,25,4092,3
330.967,0.0271102,0.153479,-0.000887275,-0.0420384,330.828,331.067,330.729,-0.000899239,0.00103779,25,4093,3
307.586,0.115132,0.303946,-0.0138718,-0.178329,307.31,307.782,307.114,-0.0140302,0.00153259,25,4094,3
330.421,0.0370954,0.323324,0.00251103,-0.0572814,330.128,330.63,329.92,0.00248759,0.00153259,25,4095,3
-249.256,0.379482,-0.537483,-1.61811,-0.633587,-248.682,-1.61457,-248.363,-249.579,0.0363966,25,4096,3
-67.7913,0.809234,-0.147553,-1.10822,-1.35066,-67.6336,0.0252236,-67.5627,-68.9956,0.0363966,25,4097,3
-247.493,0.530179,-1.08169,-1.63049,-0.886807,-246.336,-1.62348,-245.695,-248.142,0.0522301,25,4098,3
-67.2978,1.16169,-0.300509,-1.10017,-1.9406,-66.9768,0.21191,-66.8331,-68.7536,0.0522301,25,4099,3
-249.22,0.400407,-0.555215,-1.61811,-0.620576,-248.718,-1.61457,-248.363,-249.579,0.0363966,25,4100,3
-67.7815,0.853454,-0.152378,-1.10822,-1.32316,-67.6434,0.0252236,-67.5627,-68.9956,0.0363966,25,4101,3
-247.421,0.560861,-1.11748,-1.63049,-0.867728,-246.409,-1.62348,-245.695,-248.142,0.0522301,25,4102,3
-67.278,1.22667,-0.310301,-1.10017,-1.90019,-66.9966,0.21191,-66.8331,-68.7536,0.0522301,25,4103,3
68.1639,0.823165,0.147824,-0.60839,-1.37398,68.0059,68.2525,67.9639,-0.655077,0.0181983,25,4104,3
158.84,0.670365,0.342924,-0.306996,-1.11893,158.474,159.046,158.28,-0.318676,0.0181983,25,4105,3
67.6725,1.17988,0.299756,-0.612844,-1.97104,67.3521,67.8523,67.2683,-0.708879,0.0261151,25,4106,3
157.698,0.960465,0.696981,-0.314018,-1.60473,156.952,158.115,156.559,-0.338091,0.0261151,25,4107,3
68.154,0.868209,0.152672,-0.60839,-1.34597,68.0157,68.2525,67.9639,-0.655077,0.0181983,25,4108,3
158.818,0.707042,0.3542,-0.306996,-1.09612,158.497,159.046,158.28,-0.318676,0.0181983,25,4109,3
67.6526,1.24592,0.309574,-0.612844,-1.92997,67.372,67.8523,67.2683,-0.708879,0.0261151,25,4110,3
157.651,1.01444,0.719846,-0.314018,-1.57117,156.999,158.115,156.559,-0.338091,0.0261151,25,4111,3
226.902,0.479915,0.489832,-0.133784,-0.801052,226.378,227.196,226.089,-0.13781,0.00909915,25,4112,3
272.32,0.311919,0.588287,-0.0542558,-0.520668,271.691,272.673,271.34,-0.0557191,0.00909915,25,4113,3
225.276,0.682305,0.99574,-0.132028,-1.14041,224.211,225.873,223.622,-0.140226,0.0130575,25,4114,3
270.388,0.431691,1.18789,-0.0379223,-0.72216,269.117,271.1,268.408,-0.0407428,0.0130575,25,4115,3
226.869,0.506181,0.505931,-0.133784,-0.784719,226.411,227.196,226.089,-0.13781,0.00909915,25,4116,3
272.281,0.329015,0.607644,-0.0542558,-0.510037,271.73,272.673,271.34,-0.0557191,0.00909915,25,4117,3
225.209,0.721022,1.02845,-0.132028,-1.11633,224.278,225.873,223.622,-0.140226,0.0130575,25,4118,3
270.308,0.456754,1.22708,-0.0379223,-0.706575,269.197,271.1,268.408,-0.0407428,0.0130575,25,4119,3
306.412,0.164916,0.661241,-0.0114495,-0.275369,305.705,306.808,305.309,-0.0118172,0.00454957,25,4120,3
329.163,0.0534407,0.706499,0.0132138,-0.0894231,328.407,329.587,327.984,0.013163,0.00454957,25,4121,3
304.264,0.212135,1.32258,0.0191474,-0.355856,302.849,305.057,302.057,0.0185404,0.00652877,25,4122,3
326.886,0.0500134,1.39925,0.0535294,-0.0855042,325.388,327.724,324.55,0.0534256,0.00652877,25,4123,3
306.368,0.174031,0.683065,-0.0114495,-0.269701,305.749,306.808,305.309,-0.0118172,0.00454957,25,4124,3
329.116,0.0565649,0.729976,0.0132138,-0.0874803,328.455,329.587,327.984,0.013163,0.00454957,25,4125,3
304.175,0.225332,1.36648,0.0191474,-0.347649,302.938,305.057,302.057,0.0185404,0.00652877,25,4126,3
326.791,0.054566,1.44609,0.0535293,-0.0826732,325.483,327.724,324.55,0.0534256,0.00652877,25,4127,3
-243.407,0.786033,-2.32907,-1.65033,-1.31376,-240.915,-1.63431,-239.535,-244.803,0.151961,25,4128,3
-66.176,1.69195,-0.644839,-1.09101,-2.82517,-65.4869,0.536719,-65.1841,-68.1066,0.151961,25,4129,3
-236.125,1.02837,-4.5954,-1.83141,-1.72672,-231.206,-1.8016,-228.482,-238.879,0.215295,25,4130,3
-64.1309,2.45918,-1.3048,-1.15179,-4.11358,-62.7357,1.01366,-62.1477,-66.8844,0.215295,25,4131,3
-243.251,0.830621,-2.40635,-1.65033,-1.28603,-241.072,-1.63431,-239.535,-244.803,0.151961,25,4132,3
-66.1333,1.78549,-0.665909,-1.09101,-2.76701,-65.5296,0.536719,-65.1841,-68.1066,0.151961,25,4133,3
-235.814,1.09381,-4.74894,-1.83141,-1.68603,-231.517,-1.8016,-228.482,-238.879,0.215295,25,4134,3
-64.0438,2.60169,-1.34774,-1.15179,-4.02496,-62.8228,1.01366,-62.1477,-66.8844,0.215295,25,4135,3
66.5491,1.72061,0.642935,-0.621816,-2.87308,65.8617,66.9347,65.6886,-0.834277,0.0759804,25,4136,3
155.081,1.40372,1.49637,-0.328569,-2.34415,153.481,155.978,152.638,-0.382616,0.0759804,25,4137,3
64.5091,2.51355,1.29812,-0.554138,-4.20427,63.1207,65.2875,62.8189,-1.03072,0.107648,25,4138,3
150.348,1.99716,3.00805,-0.179819,-3.34271,147.131,152.151,145.443,-0.295239,0.107648,25,4139,3
66.5063,1.81578,0.664042,-0.621816,-2.8139,65.9045,66.9347,65.6886,-0.834277,0.0759804,25,4140,3
154.981,1.48155,1.54559,-0.328569,-2.29575,153.581,155.978,152.638,-0.382616,0.0759804,25,4141,3
64.4222,2.65898,1.34099,-0.554138,-4.11383,63.2077,65.2875,62.8189,-1.03072,0.107648,25,4142,3
150.146,2.11466,3.10758,-0.179819,-3.26964,147.332,152.151,145.443,-0.295239,0.107648,25,4143,3
221.546,1.003,2.134,-0.140678,-1.67537,219.264,222.825,218.003,-0.159462,0.0379902,25,4144,3
265.922,0.642781,2.55007,-0.0259876,-1.07437,263.194,267.45,261.672,-0.0326347,0.0379902,25,4145,3
214.85,1.35581,4.25045,0.0611439,-2.27272,210.301,217.397,207.79,0.0256068,0.0538238,25,4146,3
257.973,0.799635,5.02859,0.19515,-1.34495,252.59,260.986,249.587,0.184598,0.0538238,25,4147,3
221.403,1.05898,2.20436,-0.140678,-1.64056,219.406,222.825,218.003,-0.159462,0.0379902,25,4148,3
265.751,0.679274,2.63454,-0.0259876,-1.05167,263.365,267.45,261.672,-0.0326347,0.0379902,25,4149,3
214.563,1.43868,4.39161,0.0611439,-2.22119,210.588,217.397,207.79,0.0256068,0.0538238,25,4150,3
257.633,0.85258,5.19645,0.19515,-1.31203,252.93,260.986,249.587,0.184598,0.0538238,25,4151,3
299.249,0.325154,2.85318,0.0572082,-0.544528,296.195,300.959,294.487,0.0557108,0.0189951,25,4152,3
321.504,0.0854528,3.04439,0.1189,-0.144733,318.245,323.328,316.421,0.118675,0.0189951,25,4153,3
290.385,0.328647,5.58339,0.280866,-0.559349,284.406,293.73,281.063,0.278459,0.0269119,25,4154,3
312.046,-0.00979574,5.92803,0.332781,0.00519309,305.696,315.597,302.148,0.330161,0.0269119,25,4155,3
299.056,0.344561,2.94816,0.0572082,-0.532461,296.388,300.959,294.487,0.0557108,0.0189951,25,4156,3
321.298,0.0920121,3.14631,0.1189,-0.140654,318.451,323.328,316.421,0.118675,0.0189951,25,4157,3
290.005,0.356308,5.77069,0.280866,-0.542148,284.786,293.73,281.063,0.278459,0.0269119,25,4158,3
311.641,-0.000324998,6.12776,0.332781,0.0110824,306.101,315.597,302.148,0.330161,0.0269119,25,4159,3
-219.144,1.62086,-9.64794,-1.84793,-2.70439,-208.821,-1.7565,-203.13,-224.927,0.620593,25,4160,3
-59.5473,3.44071,-2.6563,-1.14883,-5.74106,-56.7063,1.85108,-55.603,-63.6504,0.620593,25,4161,3
-189.15,2.32567,-18.8042,-1.57028,-3.87044,-169.049,-1.32493,-158.019,-200.425,0.873929,25,4162,3
-51.425,4.75317,-5.12417,-1.09957,-7.92088,-45.9474,3.31703,-44.0323,-57.7567,0.873929,25,4163,3
-218.495,1.70861,-9.96812,-1.84793,-2.64982,-209.471,-1.7565,-203.13,-224.927,0.620593,25,4164,3
-59.3694,3.62722,-2.74402,-1.14883,-5.62509,-56.8841,1.85108,-55.603,-63.6504,0.620593,25,4165,3
-187.899,2.44267,-19.4209,-1.57028,-3.79769,-170.299,-1.32493,-158.019,-200.425,0.873929,25,4166,3
-51.0842,5.00175,-5.29223,-1.09957,-7.7663,-46.2882,3.31703,-44.0323,-57.7567,0.873929,25,4167,3
59.8957,3.50367,2.66094,-0.561027,-5.84607,57.0495,61.5015,56.577,-1.69426,0.310296,25,4168,3
139.585,2.85366,6.19055,-0.190504,-4.76154,132.963,143.296,129.557,-0.495453,0.310296,25,4169,3
51.7328,4.83721,5.14308,-0.617072,-8.06111,46.235,54.8893,45.5802,-3.11891,0.436965,25,4170,3
120.541,3.9695,11.9868,-0.329553,-6.61333,107.727,127.728,101.286,-1.07573,0.436965,25,4171,3
59.7174,3.69354,2.7489,-0.561027,-5.728,57.2279,61.5015,56.577,-1.69426,0.310296,25,4172,3
139.17,3.00835,6.39535,-0.190504,-4.66535,133.378,143.296,129.557,-0.495453,0.310296,25,4173,3
51.3907,5.09034,5.31176,-0.617072,-7.9037,46.577,54.8893,45.5802,-3.11891,0.436965,25,4174,3
119.743,4.17565,12.3799,-0.329553,-6.48514,108.524,127.728,101.286,-1.07573,0.436965,25,4175,3
199.444,2.04002,8.81494,0.0540188,-3.40395,190.013,204.727,184.838,-0.054076,0.155148,25,4176,3
239.434,1.32133,10.5392,0.199484,-2.2047,228.158,245.751,221.881,0.159832,0.155148,25,4177,3
172.199,2.88396,17.1191,-0.167575,-4.80205,153.899,182.463,143.916,-0.448808,0.218482,25,4178,3
206.683,1.92578,20.5368,-0.100228,-3.20327,184.73,218.997,172.53,-0.214318,0.218482,25,4179,3
198.852,2.15063,9.10697,0.0540188,-3.33517,190.606,204.727,184.838,-0.054076,0.155148,25,4180,3
238.725,1.39293,10.8889,0.199484,-2.16018,228.867,245.751,221.881,0.159832,0.155148,25,4181,3
171.06,3.03128,17.6805,-0.167575,-4.71044,155.038,182.463,143.916,-0.448808,0.218482,25,4182,3
205.317,2.02118,21.2103,-0.100228,-3.14395,186.096,218.997,172.53,-0.214318,0.218482,25,4183,3
269.474,0.697278,11.819,0.298733,-1.16335,256.827,276.558,249.754,0.288463,0.0775741,25,4184,3
289.535,0.234323,12.6613,0.363304,-0.390826,275.986,297.123,268.4,0.361281,0.0775741,25,4185,3
232.576,1.09397,23.0962,-0.0712697,-1.81548,207.887,246.424,194.075,-0.107996,0.109241,25,4186,3
249.86,0.476826,24.7975,-0.0626074,-0.78604,223.352,264.729,208.494,-0.0720732,0.109241,25,4187,3
268.678,0.734982,12.2118,0.298733,-1.13991,257.624,276.558,249.754,0.288463,0.0775741,25,4188,3
288.681,0.246883,13.0825,0.363304,-0.383016,276.84,297.123,268.4,0.361281,0.0775741,25,4189,3
231.04,1.14441,23.8536,-0.0712697,-1.78412,209.423,246.424,194.075,-0.107996,0.109241,25,4190,3
248.211,0.494083,25.6107,-0.0626074,-0.775309,225.002,264.729,208.494,-0.0720732,0.109241,25,4191,3
-161.245,2.66553,-27.5269,-1.41578,-4.45649,-131.824,-1.02598,-115.708,-177.751,0.531966,25,4192,3
-43.8694,5.90181,-7.46184,-1.05601,-9.85515,-35.8934,4.93065,-33.4871,-52.2624,0.531966,25,4193,3
-138.789,3.07605,-34.471,-1.57626,-5.13,-101.94,-0.853127,-81.9947,-159.458,0.5953,25,4194,3
-37.7296,6.50954,-9.37885,-1.1217,-10.8579,-27.703,6.4507,-25.3872,-47.6177,0.5953,25,4195,3
-159.418,2.81797,-28.4278,-1.41578,-4.3617,-133.651,-1.02598,-115.708,-177.751,0.531966,25,4196,3
-43.3735,6.22852,-7.70635,-1.05601,-9.65199,-36.3892,4.93065,-33.4871,-52.2624,0.531966,25,4197,3
-136.496,3.24046,-35.602,-1.57626,-5.02776,-104.233,-0.853127,-81.9947,-159.458,0.5953,25,4198,3
-37.1051,6.85908,-9.6868,-1.1217,-10.6406,-28.3274,6.4507,-25.3872,-47.6177,0.5953,25,4199,3
44.1404,6.02168,7.49507,-0.667099,-10.0552,36.1291,48.6346,35.8873,-4.91951,0.265983,25,4200,3
102.827,4.85379,17.485,-0.440408,-8.1068,84.1377,113.311,74.9484,-1.73549,0.265983,25,4201,3
37.9829,6.63041,9.4155,-0.600064,-11.0596,27.9172,43.6282,28.485,-6.81318,0.29765,25,4202,3
88.4845,5.40376,21.9497,-0.295367,-9.01304,65.0193,101.645,54.0819,-2.51844,0.29765,25,4203,3
43.6425,6.35487,7.74061,-0.667099,-9.84796,36.627,48.6346,35.8873,-4.91951,0.265983,25,4204,3
101.665,5.12399,18.0578,-0.440408,-7.93877,85.299,113.311,74.9484,-1.73549,0.265983,25,4205,3
37.3561,6.98652,9.72461,-0.600064,-10.8382,28.544,43.6282,28.485,-6.81318,0.29765,25,4206,3
87.0234,5.69353,22.6702,-0.295367,-8.83285,66.4804,101.645,54.0819,-2.51844,0.29765,25,4207,3
146.858,3.40276,25.0094,-0.31911,-5.68621,120.127,161.854,105.572,-0.761153,0.132991,25,4208,3
176.214,2.13967,30.0578,-0.275319,-3.57928,144.089,194.238,126.218,-0.428484,0.132991,25,4209,3
126.403,3.87001,31.3561,-0.13243,-6.4542,92.8823,145.203,74.8942,-0.944825,0.148825,25,4210,3
151.705,2.51823,37.6361,-0.0854123,-4.19923,111.472,174.271,89.2078,-0.387566,0.148825,25,4211,3
145.197,3.5948,25.8283,-0.31911,-5.56679,121.787,161.854,105.572,-0.761153,0.132991,25,4212,3
174.22,2.2638,31.0415,-0.275319,-3.50209,146.084,194.238,126.218,-0.428484,0.132991,25,4213,3
124.316,4.07693,32.3852,-0.13243,-6.32553,94.9691,145.203,74.8942,-0.944825,0.148825,25,4214,3
149.201,2.65239,38.871,-0.0854123,-4.1158,113.976,174.271,89.2078,-0.387566,0.148825,25,4215,3
198.24,1.06242,33.8577,-0.262915,-1.78256,162.054,218.543,141.787,-0.298264,0.0664957,25,4216,3
212.93,0.280115,36.3986,-0.266031,-0.477968,174.029,234.756,152.209,-0.272065,0.0664957,25,4217,3
170.694,1.34738,42.3517,-0.0867472,-2.24636,125.421,196.088,100.107,-0.166436,0.0744125,25,4218,3
183.359,0.480045,45.4998,-0.112946,-0.800044,134.721,210.64,107.453,-0.12588,0.0744125,25,4219,3
195.994,1.12884,34.9654,-0.262915,-1.74127,164.3,218.543,141.787,-0.298264,0.0664957,25,4220,3
210.516,0.304785,37.5892,-0.266031,-0.462627,176.443,234.756,152.209,-0.272065,0.0664957,25,4221,3
167.877,1.41877,43.7411,-0.0867472,-2.20197,128.238,196.088,100.107,-0.166436,0.0744125,25,4222,3
180.333,0.505219,46.9922,-0.112946,-0.784389,137.747,210.64,107.453,-0.12588,0.0744125,25,4223,3
-120.512,3.27175,-40.1113,-1.54698,-5.46491,-77.6335,-0.359558,-54.7708,-144.562,0.3214,25,4224,3
-32.7574,7.07534,-10.9031,-1.0902,-11.8103,-21.1013,8.43275,-19.497,-43.8846,0.3214,25,4225,3
-107.325,3.52026,-44.2001,-1.57184,-5.87291,-60.0733,0.482249,-35.6261,-133.826,0.337234,25,4226,3
-29.1948,7.42393,-11.9676,-0.96696,-12.3854,-16.4007,10.3562,-15.778,-41.1406,0.337234,25,4227,3
-117.844,3.45427,-41.4272,-1.54698,-5.35142,-80.302,-0.359558,-54.7708,-144.562,0.3214,25,4228,3
-32.0315,7.46303,-11.2611,-1.0902,-11.5693,-21.8272,8.43275,-19.497,-43.8846,0.3214,25,4229,3
-104.383,3.71029,-45.6511,-1.57184,-5.75474,-63.0155,0.482249,-35.6261,-133.826,0.337234,25,4230,3
-28.398,7.82458,-12.3605,-0.96696,-12.1362,-17.1974,10.3562,-15.778,-41.1406,0.337234,25,4231,3
32.9982,7.20219,10.9492,-0.602168,-12.0221,21.2931,39.5631,23.2742,-9.14808,0.1607,25,4232,3
76.86,5.84543,25.5232,-0.324174,-9.75819,49.5747,92.1631,37.8487,-3.9012,0.1607,25,4233,3
29.3477,7.48679,12.137,-0.440971,-12.4904,16.3725,36.6307,19.778,-11.1295,0.168617,25,4234,3
68.4581,6.04919,28.1604,-0.184687,-10.0918,38.3532,85.3423,26.8294,-5.54508,0.168617,25,4235,3
32.2694,7.59681,11.3086,-0.602168,-11.7767,22.0219,39.5631,23.2742,-9.14808,0.1607,25,4236,3
75.1612,6.16649,26.361,-0.324174,-9.55855,51.2736,92.1631,37.8487,-3.9012,0.1607,25,4237,3
28.5396,7.89098,12.5355,-0.440971,-12.2391,17.1805,36.6307,19.778,-11.1295,0.168617,25,4238,3
66.5835,6.37554,29.0849,-0.184687,-9.88883,40.2279,85.3423,26.8294,-5.54508,0.168617,25,4239,3
109.793,4.14697,36.4658,-0.177743,-6.92445,70.8103,131.657,50.2832,-1.51472,0.0803501,25,4240,3
131.754,2.64889,43.7874,-0.12683,-4.42549,84.9456,158.009,59.1712,-0.606675,0.0803501,25,4241,3
97.8609,4.29924,40.1637,-0.0594784,-7.17218,54.9239,121.942,33.0485,-2.26519,0.0843085,25,4242,3
117.501,2.77925,48.168,-0.0218075,-4.63649,66.0067,146.381,37.9567,-0.852026,0.0843085,25,4243,3
107.366,4.3762,37.6626,-0.177743,-6.78191,73.2371,131.657,50.2832,-1.51472,0.0803501,25,4244,3
128.841,2.79753,45.2241,-0.12683,-4.33306,87.8589,158.009,59.1712,-0.606675,0.0803501,25,4245,3
95.1872,4.53103,41.4822,-0.0594784,-7.02804,57.5976,121.942,33.0485,-2.26519,0.0843085,25,4246,3
114.294,2.92911,49.7493,-0.0218075,-4.5433,69.2132,146.381,37.9567,-0.852026,0.0843085,25,4247,3
148.222,1.35844,49.2996,-0.114366,-2.27334,95.5216,177.781,66.0765,-0.22894,0.040175,25,4248,3
159.186,0.417294,52.9947,-0.123901,-0.70388,102.538,190.962,70.7779,-0.139739,0.040175,25,4249,3
132.242,1.4715,54.1803,-0.0182073,-2.45497,74.3214,164.727,42.0476,-0.229328,0.0421542,25,4250,3
142.064,0.507639,58.2002,-0.0443346,-0.847919,79.8457,176.959,44.9811,-0.075129,0.0421542,25,4251,3
144.943,1.43807,50.9166,-0.114366,-2.22382,98.8005,177.781,66.0765,-0.22894,0.040175,25,4252,3
155.663,0.446726,54.7324,-0.123901,-0.685578,106.061,190.962,70.7779,-0.139739,0.040175,25,4253,3
128.636,1.55097,55.9588,-0.0182073,-2.40555,77.9279,164.727,42.0476,-0.229328,0.0421542,25,4254,3
138.19,0.535953,60.1105,-0.0443346,-0.830312,83.7194,176.959,44.9811,-0.075129,0.0421542,25,4255,3
-96.9521,3.71094,-47.4664,-1.59538,-6.19304,-46.2086,1.87701,-21.2214,-125.412,0.174555,25,4256,3
-26.6148,7.76139,-12.7241,-1.12098,-12.9504,-13.012,12.1169,-13.63,-39.2347,0.174555,25,4257,3
-89.9246,3.58347,-49.7028,-1.96392,-5.97964,-36.79,3.33661,-12.29,-119.725,0.178513,25,4258,3
-24.9977,7.70786,-13.5202,-2.8317,-12.8605,-10.5442,12.4143,-12.4406,-38.3473,0.178513,25,4259,3
-93.7926,3.91306,-49.0245,-1.59538,-6.06735,-49.3681,1.87701,-21.2214,-125.412,0.174555,25,4260,3
-25.7677,8.18205,-13.1418,-1.12098,-12.6888,-13.8591,12.1169,-13.63,-39.2347,0.174555,25,4261,3
-86.616,3.77805,-51.3344,-1.96392,-5.85864,-40.0985,3.33661,-12.29,-119.725,0.178513,25,4262,3
-24.0979,8.12515,-13.9639,-2.8317,-12.601,-11.444,12.4143,-12.4406,-38.3473,0.178513,25,4263,3
26.2914,7.74733,13.1556,-0.542244,-12.9274,12.227,34.1849,17.1995,-13.4082,0.0872773,25,4264,3
61.8228,6.16492,30.2579,-0.178736,-10.2872,29.4749,79.9641,18.9896,-7.83476,0.0872773,25,4265,3
23.8946,8.1689,13.5228,-2.82494,-13.6319,9.43585,32.0154,15.2756,-16.7854,0.0892564,25,4266,3
56.7233,6.76606,31.6753,-1.82403,-11.2931,22.8562,75.7153,14.5171,-12.4769,0.0892564,25,4267,3
25.4153,8.16767,13.5876,-0.542244,-12.666,13.1031,34.1849,17.1995,-13.4082,0.0872773,25,4268,3
59.8079,6.49959,31.2514,-0.178736,-10.079,31.4897,79.9641,18.9896,-7.83476,0.0872773,25,4269,3
22.9927,8.6131,13.9676,-2.82494,-13.3557,10.3378,32.0154,15.2756,-16.7854,0.0892564,25,4270,3
54.611,7.13594,32.717,-1.82403,-11.0631,24.9686,75.7153,14.5171,-12.4769,0.0892564,25,4271,3
88.6524,4.297,42.9792,-0.0263066,-7.17028,42.7048,114.421,20.4409,-3.531,0.0436386,25,4272,3
106.617,2.72542,51.4241,-0.00575912,-4.54866,51.6419,137.45,22.1539,-1.35048,0.0436386,25,4273,3
81.7844,4.69902,45.1137,-0.751755,-7.84428,33.5492,108.833,12.8367,-7.08792,0.0446282,25,4274,3
98.9294,2.86483,53.76,-0.216219,-4.78192,41.4526,131.16,12.0327,-3.02718,0.0446282,25,4275,3
85.7907,4.53032,44.3905,-0.0263066,-7.02519,45.5665,114.421,20.4409,-3.531,0.0436386,25,4276,3
103.194,2.87415,53.1123,-0.00575912,-4.45618,55.0653,137.45,22.1539,-1.35048,0.0436386,25,4277,3
78.7761,4.957,46.5973,-0.751755,-7.68386,36.5576,108.833,12.8367,-7.08792,0.0446282,25,4278,3
95.3468,3.02169,55.5267,-0.216219,-4.68438,45.0352,131.16,12.0327,-3.02718,0.0446282,25,4279,3
120.113,1.40467,57.7602,-0.00604522,-2.34685,58.3643,154.746,24.0637,-0.338228,0.0218193,25,4280,3
129.078,0.468496,62.0125,-0.0522838,-0.784121,62.7846,166.259,25.6558,-0.105037,0.0218193,25,4281,3
112.034,1.38419,60.0533,0.032471,-2.30936,47.8335,148.037,12.4942,-0.631831,0.0223141,25,4282,3
120.754,0.4651,64.1837,-0.138171,-0.780967,52.1424,159.24,13.8722,-0.353987,0.0223141,25,4283,3
116.268,1.48355,59.6563,-0.00604522,-2.2978,62.2093,154.746,24.0637,-0.338228,0.0218193,25,4284,3
124.951,0.496046,64.0478,-0.0522838,-0.766989,66.9117,166.259,25.6558,-0.105037,0.0218193,25,4285,3
108.036,1.45899,62.0248,0.032471,-2.26284,51.8313,148.037,12.4942,-0.631831,0.0223141,25,4286,3
116.484,0.49472,66.2892,-0.138171,-0.762549,56.4121,159.24,13.8722,-0.353987,0.0223141,25,4287,3
-84.9998,3.02741,-51.1244,-2.4416,-5.05059,-30.3639,5.09622,-7.24401,-115.657,0.0922591,25,4288,3
-23.744,6.76956,-14.5334,-5.81057,-11.2948,-8.21176,10.9194,-11.0503,-37.6354,0.0922591,25,4289,3
-82.1656,2.3516,-51.6204,-2.38451,-3.92264,-27,6.59699,-5.02629,-113.121,0.0932817,25,4290,3
-22.8874,5.07841,-15.1338,-7.54231,-8.47035,-6.71357,8.50696,-9.22007,-36.4301,0.0932817,25,4291,3
-81.6114,3.19074,-52.7954,-2.4416,-4.94902,-33.7522,5.09622,-7.24401,-115.657,0.0922591,25,4292,3
-22.7803,7.13586,-15.0087,-5.81057,-11.067,-9.17551,10.9194,-11.0503,-37.6354,0.0922591,25,4293,3
-78.7447,2.47802,-53.3074,-2.38451,-3.84403,-30.4209,6.59699,-5.02629,-113.121,0.0932817,25,4294,3
-21.884,5.3507,-15.6287,-7.54231,-8.30103,-7.71697,8.50696,-9.22007,-36.4301,0.0932817,25,4295,3
22.2338,8.11094,12.6615,-8.80299,-13.5342,8.70556,29.8303,12.7352,-20.429,0.0461296,25,4296,3
52.4319,8.17271,31.6375,-8.82122,-13.6422,18.6267,71.4186,11.9179,-21.0991,0.0461296,25,4297,3
21.693,6.02095,11.2521,-14.6672,-10.0374,9.67043,28.4479,8.89482,-20.6464,0.0466408,25,4298,3
50.3797,7.01687,29.0253,-21.789,-11.6782,19.3724,67.8596,8.50862,-28.405,0.0466408,25,4299,3
21.397,8.55106,13.0742,-8.80299,-13.2605,9.54241,29.8303,12.7352,-20.429,0.0461296,25,4300,3
50.3394,8.62061,32.6694,-8.82122,-13.3637,20.7193,71.4186,11.9179,-21.0991,0.0461296,25,4301,3
20.9491,6.33928,11.6189,-14.6672,-9.83946,10.4143,28.4479,8.89482,-20.6464,0.0466408,25,4302,3
48.4653,7.37036,29.9694,-21.789,-11.4584,21.2868,67.8596,8.50862,-28.405,0.0466408,25,4303,3
75.129,6.99874,46.5714,-6.07199,-11.6925,25.3645,103.091,9.46139,-18.1307,0.0230648,25,4304,3
91.1417,4.61502,56.3514,-2.59873,-7.7252,30.9227,124.984,6.58933,-12.1073,0.0230648,25,4305,3
70.3693,8.78488,43.3587,-27.7074,-14.5913,24.0591,96.6849,7.30294,-37.2668,0.0233204,25,4306,3
82.2919,10.841,54.5256,-29.4679,-17.9624,24.0541,116.044,5.96275,-45.1288,0.0233204,25,4307,3
72.047,7.39118,48.0913,-6.07199,-11.4484,28.4465,103.091,9.46139,-18.1307,0.0230648,25,4308,3
87.4093,4.88735,58.1921,-2.59873,-7.55586,34.6551,124.984,6.58933,-12.1073,0.0230648,25,4309,3
67.5171,9.20109,44.7653,-27.7074,-14.3325,26.9114,96.6849,7.30294,-37.2668,0.0233204,25,4310,3
78.7046,11.3151,56.2947,-29.4679,-17.6675,27.6414,116.044,5.96275,-45.1288,0.0233204,25,4311,3
104.656,2.00663,62.4723,-0.676695,-3.3811,37.8844,142.169,5.59575,-5.90138,0.0115324,25,4312,3
113.489,1.052,66.1961,-1.61754,-1.77908,42.7437,153.284,8.77274,-7.44193,0.0115324,25,4313,3
89.724,11.8591,65.1299,-26.5077,-19.5897,20.1478,131.149,6.07437,-53.8596,0.0116602,25,4314,3
94.3867,9.08124,73.6295,-20.0946,-14.8809,15.6715,142.955,6.59839,-59.5896,0.0116602,25,4315,3
100.509,2.14491,64.5175,-0.676695,-3.29511,42.0316,142.169,5.59575,-5.90138,0.0115324,25,4316,3
109.1,1.13032,68.3606,-1.61754,-1.73038,47.133,153.284,8.77274,-7.44193,0.0115324,25,4317,3
85.4292,12.3243,67.2478,-26.5077,-19.3004,24.4425,131.149,6.07437,-53.8596,0.0116602,25,4318,3
89.4839,9.32976,76.0473,-20.0946,-14.7264,20.5743,142.955,6.59839,-59.5896,0.0116602,25,4319,3
-250.938,0.0784757,-0.0201159,-1.6153,-0.113493,-250.923,-1.61518,-250.909,-250.952,0.00167713,25,4320,3
-68.2518,0.167292,-0.00550163,-1.10911,-0.241822,-68.2477,-0.183942,-68.2445,-69.1802,0.00167713,25,4321,3
-250.848,0.122723,-0.0483853,-1.61512,-0.177386,-250.812,-1.61482,-250.779,-250.882,0.00266631,25,4322,3
-68.2272,0.261388,-0.0132486,-1.10918,-0.377761,-68.2172,-0.170956,-68.2096,-69.173,0.00266631,25,4323,3
-250.937,0.0822184,-0.0205665,-1.6153,-0.110807,-250.925,-1.61517,-250.909,-250.952,0.00167713,25,4324,3
-68.2514,0.175187,-0.00562518,-1.10911,-0.236161,-68.248,-0.183943,-68.2445,-69.1802,0.00167713,25,4325,3
-250.845,0.128523,-0.0494694,-1.61512,-0.173235,-250.815,-1.61482,-250.779,-250.882,0.00266631,25,4326,3
-68.2263,0.273692,-0.0135447,-1.10918,-0.36895,-68.2181,-0.170956,-68.2096,-69.173,0.00266631,25,4327,3
68.6256,0.17042,0.00551356,-0.607236,-0.246342,68.6214,68.6294,68.6192,-0.608878,0.000838566,25,4328,3
159.914,0.138617,0.0128621,-0.305328,-0.200391,159.904,159.923,159.896,-0.305738,0.000838566,25,4329,3
68.6009,0.266447,0.0132804,-0.60706,-0.385059,68.5909,68.6101,68.5856,-0.611001,0.00133315,25,4330,3
159.857,0.216631,0.030919,-0.305221,-0.313085,159.833,159.878,159.813,-0.306201,0.00133315,25,4331,3
68.6252,0.178464,0.00563718,-0.607235,-0.240573,68.6218,68.6294,68.6192,-0.608877,0.000838566,25,4332,3
159.913,0.145172,0.0131501,-0.305329,-0.19569,159.905,159.923,159.896,-0.305739,0.000838566,25,4333,3
68.6,0.278976,0.0135774,-0.60706,-0.376086,68.5918,68.6101,68.5856,-0.611001,0.00133315,25,4334,3
159.854,0.226835,0.0316108,-0.30522,-0.305778,159.835,159.878,159.813,-0.306201,0.00133315,25,4335,3
228.436,0.0988862,0.0183784,-0.128623,-0.142984,228.423,228.449,228.41,-0.128763,0.000419283,25,4336,3
274.162,0.0639409,0.0220032,-0.0495691,-0.0924907,274.145,274.177,274.13,-0.0496204,0.000419283,25,4337,3
228.354,0.154517,0.0440742,-0.128872,-0.223331,228.321,228.385,228.291,-0.129207,0.000666576,25,4338,3
274.063,0.100019,0.0528155,-0.0502438,-0.144581,274.023,274.1,273.987,-0.0503645,0.000666576,25,4339,3
228.435,0.103584,0.0187907,-0.128623,-0.139614,228.424,228.449,228.41,-0.128764,0.000419283,25,4340,3
274.16,0.0670025,0.0224959,-0.049571,-0.0902927,274.147,274.177,274.13,-0.0496223,0.000419283,25,4341,3
228.351,0.16181,0.0450602,-0.128872,-0.21811,228.324,228.385,228.291,-0.129207,0.000666576,25,4342,3
274.06,0.104758,0.0539982,-0.0502437,-0.141191,274.027,274.1,273.987,-0.0503645,0.000666576,25,4343,3
308.481,0.0338354,0.0246639,-0.0128831,-0.0489844,308.462,308.498,308.445,-0.0128969,0.000209641,25,4344,3
331.376,0.0116528,0.0263637,-0.00186489,-0.0169385,331.356,331.394,331.338,-0.00186798,0.000209641,25,4345,3
308.37,0.0530749,0.0594916,-0.013774,-0.0767406,308.325,308.411,308.284,-0.0138049,0.000333288,25,4346,3
331.257,0.018163,0.0637291,-0.00213332,-0.026289,331.209,331.301,331.165,-0.00213864,0.000333288,25,4347,3
308.479,0.0354857,0.0252217,-0.0128778,-0.0478036,308.464,308.498,308.445,-0.0128915,0.000209641,25,4348,3
331.374,0.0122662,0.0269497,-0.00186569,-0.0165047,331.358,331.394,331.338,-0.00186879,0.000209641,25,4349,3
308.366,0.0556052,0.0608219,-0.0137744,-0.0749318,308.329,308.411,308.284,-0.0138053,0.000333288,25,4350,3
331.253,0.0190527,0.0651657,-0.00213514,-0.0256522,331.213,331.301,331.165,-0.00214046,0.000333288,25,4351,3
-250.621,0.192123,-0.119935,-1.61581,-0.277652,-250.53,-1.61507,-250.448,-250.704,0.00830233,25,4352,3
-68.1649,0.410367,-0.0328601,-1.10928,-0.59299,-68.1402,-0.140948,-68.121,-69.1523,0.00830233,25,4353,3
-250.194,0.28097,-0.253773,-1.61445,-0.40629,-250.003,-1.61289,-249.828,-250.369,0.0122607,25,4354,3
-68.0482,0.599415,-0.0691689,-1.10793,-0.866483,-67.9962,-0.0848245,-67.9562,-69.1113,0.0122607,25,4355,3
-250.613,0.201161,-0.122635,-1.6158,-0.271175,-250.538,-1.61507,-250.448,-250.704,0.00830233,25,4356,3
-68.1627,0.429612,-0.0335964,-1.10928,-0.579199,-68.1423,-0.140948,-68.121,-69.1523,0.00830233,25,4357,3
-250.177,0.294413,-0.259481,-1.61445,-0.396657,-250.019,-1.61289,-249.828,-250.369,0.0122607,25,4358,3
-68.0437,0.627823,-0.0707177,-1.10793,-0.846126,-68.0007,-0.0848245,-67.9562,-69.1113,0.0122607,25,4359,3
68.5382,0.417847,0.0330332,-0.60705,-0.603815,68.5134,68.5611,68.5003,-0.616817,0.00415116,25,4360,3
159.711,0.339662,0.0767147,-0.304829,-0.490835,159.653,159.764,159.603,-0.30726,0.00415116,25,4361,3
68.4213,0.610464,0.0693231,-0.608432,-0.882439,68.3691,68.4693,68.3418,-0.629114,0.00613036,25,4362,3
159.438,0.496921,0.161789,-0.306771,-0.718358,159.317,159.55,159.21,-0.311931,0.00613036,25,4363,3
68.536,0.437458,0.0337741,-0.60705,-0.589762,68.5156,68.5611,68.5003,-0.616817,0.00415116,25,4364,3
159.706,0.355605,0.0784391,-0.304829,-0.47941,159.658,159.764,159.603,-0.30726,0.00415116,25,4365,3
68.4167,0.639381,0.0708775,-0.608432,-0.861718,68.3737,68.4693,68.3418,-0.629114,0.00613036,25,4366,3
159.428,0.520505,0.165419,-0.306771,-0.701458,159.327,159.55,159.21,-0.311931,0.00613036,25,4367,3
228.147,0.242085,0.109307,-0.128335,-0.349838,228.065,228.223,227.99,-0.129164,0.00207558,25,4368,3
273.815,0.156689,0.130909,-0.0499424,-0.22643,273.716,273.905,273.626,-0.0502405,0.00207558,25,4369,3
227.757,0.354865,0.231425,-0.13139,-0.513054,227.582,227.917,227.424,-0.133158,0.00306518,25,4370,3
273.346,0.229862,0.277915,-0.052608,-0.332384,273.137,273.539,272.945,-0.053245,0.00306518,25,4371,3
228.14,0.253456,0.111765,-0.128335,-0.341689,228.072,228.223,227.99,-0.129164,0.00207558,25,4372,3
273.806,0.164047,0.133853,-0.0499424,-0.221158,273.725,273.905,273.626,-0.0502405,0.00207558,25,4373,3
227.741,0.371759,0.236617,-0.13139,-0.500948,227.598,227.917,227.424,-0.133158,0.00306518,25,4374,3
273.328,0.240858,0.284153,-0.052608,-0.324504,273.155,273.539,272.945,-0.053245,0.00306518,25,4375,3
308.09,0.0832092,0.147215,-0.0136446,-0.120237,307.98,308.192,307.878,-0.0137203,0.00103779,25,4376,3
330.957,0.0284638,0.157675,-0.000887275,-0.041134,330.839,331.067,330.729,-0.000899239,0.00103779,25,4377,3
307.565,0.120695,0.312294,-0.0138718,-0.174611,307.33,307.782,307.114,-0.0140302,0.00153259,25,4378,3
330.4,0.0387253,0.332137,0.00251103,-0.0561923,330.149,330.63,329.92,0.00248759,0.00153259,25,4379,3
308.081,0.0871092,0.150527,-0.0136445,-0.117442,307.989,308.192,307.878,-0.0137202,0.00103779,25,4380,3
330.947,0.0298012,0.161238,-0.000887173,-0.0401758,330.849,331.067,330.729,-0.000899137,0.00103779,25,4381,3
307.545,0.126548,0.319319,-0.0138718,-0.170417,307.351,307.782,307.114,-0.0140302,0.00153259,25,4382,3
330.378,0.0407624,0.339665,0.00251104,-0.0547326,330.172,330.63,329.92,0.00248759,0.00153259,25,4383,3
-249.184,0.420108,-0.570399,-1.61811,-0.607412,-248.754,-1.61457,-248.363,-249.579,0.0363966,25,4384,3
-67.7714,0.895839,-0.156582,-1.10822,-1.29484,-67.6535,0.0252236,-67.5627,-68.9956,0.0363966,25,4385,3
-247.347,0.587044,-1.14795,-1.63049,-0.850233,-246.482,-1.62348,-245.695,-248.142,0.0522301,25,4386,3
-67.2573,1.28612,-0.318893,-1.10017,-1.86047,-67.0174,0.21191,-66.8331,-68.7536,0.0522301,25,4387,3
-249.146,0.440137,-0.583286,-1.61811,-0.593059,-248.792,-1.61457,-248.363,-249.579,0.0363966,25,4388,3
-67.761,0.938166,-0.160089,-1.10822,-1.26451,-67.6639,0.0252236,-67.5627,-68.9956,0.0363966,25,4389,3
-247.271,0.616412,-1.17396,-1.63049,-0.829188,-246.559,-1.62348,-245.695,-248.142,0.0522301,25,4390,3
-67.2363,1.34832,-0.326009,-1.10017,-1.81589,-67.0383,0.21191,-66.8331,-68.7536,0.0522301,25,4391,3
68.1439,0.911265,0.156872,-0.60839,-1.3172,68.0258,68.2525,67.9639,-0.655077,0.0181983,25,4392,3
158.794,0.742111,0.363919,-0.306996,-1.07269,158.52,159.046,158.28,-0.318676,0.0181983,25,4393,3
67.632,1.30627,0.318102,-0.612844,-1.88965,67.3926,67.8523,67.2683,-0.708879,0.0261151,25,4394,3
157.603,1.06336,0.739644,-0.314018,-1.53848,157.047,158.115,156.559,-0.338091,0.0261151,25,4395,3
68.1335,0.954381,0.160396,-0.60839,-1.2863,68.0362,68.2525,67.9639,-0.655077,0.0181983,25,4396,3
158.77,0.777218,0.372114,-0.306996,-1.04753,158.544,159.046,158.28,-0.318676,0.0181983,25,4397,3
67.611,1.36948,0.325237,-0.612844,-1.84435,67.4136,67.8523,67.2683,-0.708879,0.0261151,25,4398,3
157.554,1.11502,0.756261,-0.314018,-1.50146,157.096,158.115,156.559,-0.338091,0.0261151,25,4399,3
226.836,0.531278,0.51982,-0.133784,-0.767949,226.444,227.196,226.089,-0.13781,0.00909915,25,4400,3
272.24,0.345304,0.624306,-0.0542558,-0.499152,271.77,272.673,271.34,-0.0557191,0.00909915,25,4401,3
225.141,0.755431,1.0567,-0.132028,-1.09334,224.346,225.873,223.622,-0.140226,0.0130575,25,4402,3
270.227,0.477998,1.26063,-0.0379223,-0.69238,269.278,271.1,268.408,-0.0407428,0.0130575,25,4403,3
226.801,0.55642,0.53152,-0.133784,-0.749933,226.479,227.196,226.089,-0.13781,0.00909915,25,4404,3
272.199,0.361668,0.638374,-0.0542558,-0.487426,271.812,272.673,271.34,-0.0557191,0.00909915,25,4405,3
225.071,0.79249,1.08047,-0.132028,-1.06678,224.416,225.873,223.622,-0.140226,0.0130575,25,4406,3
270.143,0.501988,1.28912,-0.0379223,-0.675189,269.362,271.1,268.408,-0.0407428,0.0130575,25,4407,3
306.322,0.182572,0.701738,-0.0114495,-0.263994,305.794,306.808,305.309,-0.0118172,0.00454957,25,4408,3
329.068,0.0591748,0.749793,0.0132138,-0.0857364,328.503,329.587,327.984,0.013163,0.00454957,25,4409,3
304.086,0.234955,1.40362,0.0191474,-0.34122,303.028,305.057,302.057,0.0185404,0.00652877,25,4410,3
326.697,0.0554986,1.48505,0.0535293,-0.0820501,325.577,327.724,324.55,0.0534256,0.00652877,25,4411,3
306.276,0.191298,0.717599,-0.0114495,-0.257741,305.841,306.808,305.309,-0.0118172,0.00454957,25,4412,3
329.017,0.0621653,0.766856,0.0132138,-0.0835935,328.553,329.587,327.984,0.013163,0.00454957,25,4413,3
303.992,0.247587,1.43553,0.0191474,-0.332168,303.122,305.057,302.057,0.0185404,0.00652877,25,4414,3
326.597,0.0598562,1.5191,0.0535294,-0.0789274,325.677,327.724,324.55,0.0534256,0.00652877,25,4415,3
-243.093,0.870274,-2.47177,-1.65033,-1.25954,-241.23,-1.63431,-239.535,-244.803,0.151961,25,4416,3
-66.0889,1.87311,-0.684296,-1.09101,-2.70846,-65.574,0.536719,-65.1841,-68.1066,0.151961,25,4417,3
-235.504,1.13911,-4.87715,-1.83141,-1.65577,-231.827,-1.8016,-228.482,-238.879,0.215295,25,4418,3
-63.9546,2.72295,-1.38469,-1.15179,-3.94394,-62.912,1.01366,-62.1477,-66.8844,0.215295,25,4419,3
-242.927,0.912953,-2.52794,-1.65033,-1.22895,-241.395,-1.63431,-239.535,-244.803,0.151961,25,4420,3
-66.0438,1.96264,-0.699609,-1.09101,-2.64431,-65.6191,0.536719,-65.1841,-68.1066,0.151961,25,4421,3
-235.176,1.20174,-4.98873,-1.83141,-1.61088,-232.155,-1.8016,-228.482,-238.879,0.215295,25,4422,3
-63.8627,2.85937,-1.41589,-1.15179,-3.84618,-63.0039,1.01366,-62.1477,-66.8844,0.215295,25,4423,3
66.4622,1.90483,0.682292,-0.621816,-2.75439,65.9486,66.9347,65.6886,-0.834277,0.0759804,25,4424,3
154.879,1.55403,1.58799,-0.328569,-2.24732,153.683,155.978,152.638,-0.382616,0.0759804,25,4425,3
64.3338,2.78314,1.37762,-0.554138,-4.03087,63.2961,65.2875,62.8189,-1.03072,0.107648,25,4426,3
149.942,2.21151,3.19231,-0.179819,-3.20493,147.537,152.151,145.443,-0.295239,0.107648,25,4427,3
66.417,1.99593,0.697632,-0.621816,-2.68911,65.9938,66.9347,65.6886,-0.834277,0.0759804,25,4428,3
154.774,1.62853,1.62376,-0.328569,-2.19394,153.789,155.978,152.638,-0.382616,0.0759804,25,4429,3
64.242,2.92234,1.40878,-0.554138,-3.93112,63.3879,65.2875,62.8189,-1.03072,0.107648,25,4430,3
149.729,2.32398,3.26465,-0.179819,-3.12434,147.75,152.151,145.443,-0.295239,0.107648,25,4431,3
221.258,1.11042,2.26468,-0.140678,-1.60618,219.552,222.825,218.003,-0.159462,0.0379902,25,4432,3
265.577,0.711672,2.7063,-0.0259876,-1.03003,263.538,267.45,261.672,-0.0326347,0.0379902,25,4433,3
214.275,1.50155,4.51091,0.0611439,-2.17918,210.876,217.397,207.79,0.0256068,0.0538238,25,4434,3
257.294,0.885887,5.33687,0.19515,-1.28977,253.269,260.986,249.587,0.184598,0.0538238,25,4435,3
221.107,1.16401,2.31582,-0.140678,-1.56778,219.703,222.825,218.003,-0.159462,0.0379902,25,4436,3
265.397,0.746603,2.76769,-0.0259876,-1.00499,263.719,267.45,261.672,-0.0326347,0.0379902,25,4437,3
213.973,1.58087,4.6135,0.0611439,-2.12234,211.178,217.397,207.79,0.0256068,0.0538238,25,4438,3
256.934,0.936565,5.45887,0.19515,-1.25346,253.629,260.986,249.587,0.184598,0.0538238,25,4439,3
298.863,0.360072,3.02805,0.0572082,-0.522096,296.581,300.959,294.487,0.0557108,0.0189951,25,4440,3
321.093,0.0947358,3.23108,0.1189,-0.138834,318.656,323.328,316.421,0.118675,0.0189951,25,4441,3
289.63,0.364526,5.92584,0.280866,-0.536657,285.16,293.73,281.063,0.278459,0.0269119,25,4442,3
311.245,-0.0101144,6.29176,0.332781,0.0045413,306.497,315.597,302.148,0.330161,0.0269119,25,4443,3
298.66,0.378647,3.09708,0.0572082,-0.508785,296.784,300.959,294.487,0.0557108,0.0189951,25,4444,3
320.875,0.101014,3.30515,0.1189,-0.134335,318.874,323.328,316.421,0.118675,0.0189951,25,4445,3
289.229,0.391004,6.06195,0.280866,-0.517684,285.561,293.73,281.063,0.278459,0.0269119,25,4446,3
310.818,-0.00104912,6.43691,0.332781,0.0110374,306.924,315.597,302.148,0.330161,0.0269119,25,4447,3
-217.841,1.79426,-10.2391,-1.84793,-2.59259,-210.125,-1.7565,-203.13,-224.927,0.620593,25,4448,3
-59.1884,3.80883,-2.81899,-1.14883,-5.50374,-57.0651,1.85108,-55.603,-63.6504,0.620593,25,4449,3
-186.609,2.57383,-19.9552,-1.57028,-3.71005,-171.589,-1.32493,-158.019,-200.425,0.873929,25,4450,3
-50.7327,5.26104,-5.43782,-1.09957,-7.59304,-46.6397,3.31703,-44.0323,-57.7567,0.873929,25,4451,3
-217.155,1.87826,-10.4718,-1.84793,-2.5324,-210.81,-1.7565,-203.13,-224.927,0.620593,25,4452,3
-59.0006,3.98735,-2.88274,-1.14883,-5.37581,-57.2529,1.85108,-55.603,-63.6504,0.620593,25,4453,3
-185.289,2.68583,-20.4033,-1.57028,-3.6298,-172.909,-1.32493,-158.019,-200.425,0.873929,25,4454,3
-50.3729,5.49898,-5.55996,-1.09957,-7.42254,-46.9995,3.31703,-44.0323,-57.7567,0.873929,25,4455,3
59.5362,3.87852,2.82393,-0.561027,-5.6044,57.409,61.5015,56.577,-1.69426,0.310296,25,4456,3
138.749,3.15897,6.56976,-0.190504,-4.56471,133.8,143.296,129.557,-0.495453,0.310296,25,4457,3
51.0379,5.35408,5.45788,-0.617072,-7.72748,46.9298,54.8893,45.5802,-3.11891,0.436965,25,4458,3
118.921,4.39354,12.7205,-0.329553,-6.33955,109.346,127.728,101.286,-1.07573,0.436965,25,4459,3
59.3479,4.06026,2.88785,-0.561027,-5.47417,57.5973,61.5015,56.577,-1.69426,0.310296,25,4460,3
138.31,3.30704,6.7186,-0.190504,-4.4586,134.238,143.296,129.557,-0.495453,0.310296,25,4461,3
50.6768,5.59637,5.58048,-0.617072,-7.55385,47.2909,54.8893,45.5802,-3.11891,0.436965,25,4462,3
118.08,4.59086,13.0062,-0.329553,-6.19815,110.188,127.728,101.286,-1.07573,0.436965,25,4463,3
198.253,2.25829,9.35498,0.0540188,-3.26324,191.204,204.727,184.838,-0.054076,0.155148,25,4464,3
238.01,1.46269,11.1849,0.199484,-2.11356,229.582,245.751,221.881,0.159832,0.155148,25,4465,3
169.886,3.19186,18.1669,-0.167575,-4.60315,156.212,182.463,143.916,-0.448808,0.218482,25,4466,3
203.908,2.13116,21.7939,-0.100228,-3.07046,187.504,218.997,172.53,-0.214318,0.218482,25,4467,3
197.628,2.36416,9.56721,0.0540188,-3.18737,191.83,204.727,184.838,-0.054076,0.155148,25,4468,3
237.261,1.53123,11.4391,0.199484,-2.06445,230.33,245.751,221.881,0.159832,0.155148,25,4469,3
168.684,3.33287,18.5749,-0.167575,-4.5021,157.414,182.463,143.916,-0.448808,0.218482,25,4470,3
202.467,2.22247,22.2833,-0.100228,-3.00503,188.946,218.997,172.53,-0.214318,0.218482,25,4471,3
267.877,0.771872,12.5433,0.298733,-1.11526,258.424,276.558,249.754,0.288463,0.0775741,25,4472,3
287.825,0.259382,13.4372,0.363304,-0.374664,277.696,297.123,268.4,0.361281,0.0775741,25,4473,3
229.456,1.21036,24.5099,-0.0712697,-1.74005,211.007,246.424,194.075,-0.107996,0.109241,25,4474,3
246.51,0.527215,26.3153,-0.0626074,-0.753171,226.703,264.729,208.494,-0.0720732,0.109241,25,4475,3
267.037,0.807962,12.8287,0.298733,-1.0894,259.265,276.558,249.754,0.288463,0.0775741,25,4476,3
286.923,0.271405,13.7433,0.363304,-0.366049,278.598,297.123,268.4,0.361281,0.0775741,25,4477,3
227.834,1.25864,25.0603,-0.0712697,-1.70545,212.629,246.424,194.075,-0.107996,0.109241,25,4478,3
244.769,0.543733,26.9064,-0.0626074,-0.741335,228.444,264.729,208.494,-0.0720732,0.109241,25,4479,3
-157.526,2.95129,-29.2115,-1.41578,-4.27261,-135.543,-1.02598,-115.708,-177.751,0.531966,25,4480,3
-42.8613,6.53373,-7.91853,-1.05601,-9.44806,-36.9015,4.93065,-33.4871,-52.2624,0.531966,25,4481,3
-134.132,3.40498,-36.581,-1.57626,-4.91783,-106.597,-0.853127,-81.9947,-159.458,0.5953,25,4482,3
-36.4625,7.20575,-9.95298,-1.1217,-10.4089,-28.97,6.4507,-25.3872,-47.6177,0.5953,25,4483,3
-155.597,3.09721,-29.8663,-1.41578,-4.16805,-137.472,-1.02598,-115.708,-177.751,0.531966,25,4484,3
-42.3378,6.84645,-8.09624,-1.05601,-9.22396,-37.425,4.93065,-33.4871,-52.2624,0.531966,25,4485,3
-131.711,3.56235,-37.403,-1.57626,-4.80506,-109.018,-0.853127,-81.9947,-159.458,0.5953,25,4486,3
-35.8032,7.54032,-10.1768,-1.1217,-10.1692,-29.6294,6.4507,-25.3872,-47.6177,0.5953,25,4487,3
43.1278,6.66642,7.95379,-0.667099,-9.63979,37.1417,48.6346,35.8873,-4.91951,0.265983,25,4488,3
100.465,5.37361,18.5552,-0.440408,-7.77199,86.4999,113.311,74.9484,-1.73549,0.265983,25,4489,3
36.7108,7.33955,9.99187,-0.600064,-10.6023,29.1892,43.6282,28.485,-6.81318,0.29765,25,4490,3
85.5191,5.98167,23.2933,-0.295367,-8.64032,67.9847,101.645,54.0819,-2.51844,0.29765,25,4491,3
42.6021,6.98535,8.13224,-0.667099,-9.41124,37.6674,48.6346,35.8873,-4.91951,0.265983,25,4492,3
99.2384,5.63224,18.9714,-0.440408,-7.58665,87.726,113.311,74.9484,-1.73549,0.265983,25,4493,3
36.0491,7.68041,10.2165,-0.600064,-10.358,29.851,43.6282,28.485,-6.81318,0.29765,25,4494,3
83.9765,6.25904,23.817,-0.295367,-8.44157,69.5273,101.645,54.0819,-2.51844,0.29765,25,4495,3
143.479,3.76738,26.54,-0.31911,-5.45149,123.505,161.854,105.572,-0.761153,0.132991,25,4496,3
172.154,2.36919,31.8973,-0.275319,-3.43167,148.15,194.238,126.218,-0.428484,0.132991,25,4497,3
122.167,4.28385,33.2755,-0.13243,-6.18727,97.1184,145.203,74.8942,-0.944825,0.148825,25,4498,3
146.62,2.78748,39.9399,-0.0854123,-4.02554,116.556,174.271,89.2078,-0.387566,0.148825,25,4499,3
141.726,3.95119,27.1351,-0.31911,-5.31976,125.259,161.854,105.572,-0.761153,0.132991,25,4500,3
170.048,2.488,32.6122,-0.275319,-3.34653,150.256,194.238,126.218,-0.428484,0.132991,25,4501,3
119.963,4.48191,34.0234,-0.13243,-6.04534,99.3217,145.203,74.8942,-0.944825,0.148825,25,4502,3
143.976,2.91589,40.8374,-0.0854123,-3.93352,119.2,174.271,89.2078,-0.387566,0.148825,25,4503,3
193.666,1.17673,35.9297,-0.262915,-1.70926,166.628,218.543,141.787,-0.298264,0.0664957,25,4504,3
208.013,0.310776,38.626,-0.266031,-0.458624,178.946,234.756,152.209,-0.272065,0.0664957,25,4505,3
164.973,1.49142,44.9441,-0.0867472,-2.15343,131.142,196.088,100.107,-0.166436,0.0744125,25,4506,3
177.212,0.531342,48.2848,-0.112946,-0.766934,140.868,210.64,107.453,-0.12588,0.0744125,25,4507,3
191.295,1.2403,36.7347,-0.262915,-1.66371,169,218.543,141.787,-0.298264,0.0664957,25,4508,3
205.464,0.334389,39.4913,-0.266031,-0.441703,181.495,234.756,152.209,-0.272065,0.0664957,25,4509,3
161.998,1.55974,45.9539,-0.0867472,-2.10446,134.117,196.088,100.107,-0.166436,0.0744125,25,4510,3
174.017,0.555439,49.3694,-0.112946,-0.749667,144.063,210.64,107.453,-0.12588,0.0744125,25,4511,3
-115.093,3.62217,-42.5665,-1.54698,-5.23923,-83.0525,-0.359558,-54.7708,-144.562,0.3214,25,4512,3
-31.2844,7.83263,-11.5705,-1.0902,-11.3223,-22.5743,8.43275,-19.497,-43.8846,0.3214,25,4513,3
-101.354,3.89683,-46.9058,-1.57184,-5.6301,-66.0447,0.482249,-35.6261,-133.826,0.337234,25,4514,3
-27.5779,8.21807,-12.7002,-0.96696,-11.8733,-18.0175,10.3562,-15.778,-41.1406,0.337234,25,4515,3
-112.276,3.79688,-43.5229,-1.54698,-5.11404,-85.8699,-0.359558,-54.7708,-144.562,0.3214,25,4516,3
-30.518,8.20372,-11.8307,-1.0902,-11.0564,-23.3407,8.43275,-19.497,-43.8846,0.3214,25,4517,3
-98.2474,4.07872,-47.9603,-1.57184,-5.49976,-69.1511,0.482249,-35.6261,-133.826,0.337234,25,4518,3
-26.7367,8.60158,-12.9858,-0.96696,-11.5985,-18.8587,10.3562,-15.778,-41.1406,0.337234,25,4519,3
31.519,7.97305,11.6194,-0.602168,-11.5253,22.7723,39.5631,23.2742,-9.14808,0.1607,25,4520,3
73.4119,6.47113,27.0856,-0.324174,-9.35499,53.0229,92.1631,37.8487,-3.9012,0.1607,25,4521,3
27.708,8.28767,12.88,-0.440971,-11.974,18.0122,36.6307,19.778,-11.1295,0.168617,25,4522,3
64.6537,6.69628,29.8842,-0.184687,-9.67452,42.1577,85.3423,26.8294,-5.54508,0.168617,25,4523,3
30.7495,8.35077,11.8806,-0.602168,-11.2546,23.5418,39.5631,23.2742,-9.14808,0.1607,25,4524,3
71.6182,6.77844,27.6945,-0.324174,-9.13477,54.8166,92.1631,37.8487,-3.9012,0.1607,25,4525,3
26.8548,8.67456,13.1696,-0.440971,-11.6968,18.8653,36.6307,19.778,-11.1295,0.168617,25,4526,3
62.6744,7.00865,30.5561,-0.184687,-9.45068,44.137,85.3423,26.8294,-5.54508,0.168617,25,4527,3
104.867,4.59097,38.698,-0.177743,-6.6384,75.7368,131.657,50.2832,-1.51472,0.0803501,25,4528,3
125.839,2.93266,46.4677,-0.12683,-4.24277,90.8613,158.009,59.1712,-0.606675,0.0803501,25,4529,3
92.4348,4.75912,42.6223,-0.0594784,-6.87564,60.35,121.942,33.0485,-2.26519,0.0843085,25,4530,3
110.993,3.07654,51.1166,-0.0218075,-4.44479,72.5142,146.381,37.9567,-0.852026,0.0843085,25,4531,3
102.304,4.81039,39.5677,-0.177743,-6.48117,78.299,131.657,50.2832,-1.51472,0.0803501,25,4532,3
122.763,3.07493,47.5118,-0.12683,-4.14082,93.9371,158.009,59.1712,-0.606675,0.0803501,25,4533,3
89.6119,4.98098,43.5805,-0.0594784,-6.71665,63.1729,121.942,33.0485,-2.26519,0.0843085,25,4534,3
107.608,3.21999,52.2658,-0.0218075,-4.342,75.8996,146.381,37.9567,-0.852026,0.0843085,25,4535,3
141.561,1.50421,52.3172,-0.114366,-2.17962,102.182,177.781,66.0765,-0.22894,0.040175,25,4536,3
152.027,0.462437,56.2384,-0.123901,-0.675081,109.697,190.962,70.7779,-0.139739,0.040175,25,4537,3
124.923,1.62891,57.4969,-0.0182073,-2.35347,81.6411,164.727,42.0476,-0.229328,0.0421542,25,4538,3
134.201,0.562008,61.7629,-0.0443346,-0.812902,87.7084,176.959,44.9811,-0.075129,0.0421542,25,4539,3
138.099,1.58044,53.4924,-0.114366,-2.125,105.644,177.781,66.0765,-0.22894,0.040175,25,4540,3
148.307,0.490609,57.5013,-0.123901,-0.654893,113.417,190.962,70.7779,-0.139739,0.040175,25,4541,3
121.115,1.70498,58.7894,-0.0182073,-2.29896,85.4489,164.727,42.0476,-0.229328,0.0421542,25,4542,3
130.111,0.58911,63.1512,-0.0443346,-0.793482,91.7984,176.959,44.9811,-0.075129,0.0421542,25,4543,3
-90.5394,4.10804,-50.372,-1.59538,-5.93707,-52.6213,1.87701,-21.2214,-125.412,0.174555,25,4544,3
-24.8958,8.59177,-13.503,-1.12098,-12.415,-14.7311,12.1169,-13.63,-39.2347,0.174555,25,4545,3
-83.2098,3.96688,-52.7453,-1.96392,-5.73247,-43.5048,3.33661,-12.29,-119.725,0.178513,25,4546,3
-23.1711,8.53247,-14.3478,-2.8317,-12.3289,-12.3708,12.4143,-12.4406,-38.3473,0.178513,25,4547,3
-87.2036,4.30151,-51.5043,-1.59538,-5.79844,-55.9571,1.87701,-21.2214,-125.412,0.174555,25,4548,3
-24.0014,8.99442,-13.8066,-1.12098,-12.1265,-15.6254,12.1169,-13.63,-39.2347,0.174555,25,4549,3
-79.7166,4.15314,-53.9311,-1.96392,-5.599,-46.998,3.33661,-12.29,-119.725,0.178513,25,4550,3
-22.2211,8.9319,-14.6703,-2.8317,-12.0426,-13.3208,12.4143,-12.4406,-38.3473,0.178513,25,4551,3
24.5141,8.57624,13.961,-0.542244,-12.393,14.0043,34.1849,17.1995,-13.4082,0.0872773,25,4552,3
57.7349,6.82453,32.1101,-0.178736,-9.86192,33.5627,79.9641,18.9896,-7.83476,0.0872773,25,4553,3
22.0677,9.04298,14.3508,-2.82494,-13.0685,11.2628,32.0154,15.2756,-16.7854,0.0892564,25,4554,3
52.444,7.49018,33.6146,-1.82403,-10.8264,27.1356,75.7153,14.5171,-12.4769,0.0892564,25,4555,3
23.5891,8.97858,14.2749,-0.542244,-12.1047,14.9293,34.1849,17.1995,-13.4082,0.0872773,25,4556,3
55.6077,7.14488,32.8322,-0.178736,-9.63236,35.69,79.9641,18.9896,-7.83476,0.0872773,25,4557,3
21.1154,9.46817,14.674,-2.82494,-12.7638,12.2151,32.0154,15.2756,-16.7854,0.0892564,25,4558,3
50.2138,7.84422,34.3716,-1.82403,-10.5727,29.3658,75.7153,14.5171,-12.4769,0.0892564,25,4559,3
82.846,4.75675,45.6102,-0.0263066,-6.87389,48.5112,114.421,20.4409,-3.531,0.0436386,25,4560,3
99.6696,3.01708,54.572,-0.00575912,-4.36067,58.5892,137.45,22.1539,-1.35048,0.0436386,25,4561,3
75.6896,5.202,47.8758,-0.751755,-7.52015,39.6441,108.833,12.8367,-7.08792,0.0446282,25,4562,3
91.6665,3.17145,57.0512,-0.216219,-4.58431,48.7155,131.16,12.0327,-3.02718,0.0446282,25,4563,3
79.8246,4.98009,46.6359,-0.0263066,-6.71385,51.5327,114.421,20.4409,-3.531,0.0436386,25,4564,3
96.0551,3.15944,55.7989,-0.00575912,-4.25866,62.2037,137.45,22.1539,-1.35048,0.0436386,25,4565,3
72.5133,5.44893,48.954,-0.751755,-7.34321,42.8203,108.833,12.8367,-7.08792,0.0446282,25,4566,3
87.8839,3.3216,58.3352,-0.216219,-4.47672,52.4981,131.16,12.0327,-3.02718,0.0446282,25,4567,3
112.309,1.55516,61.2959,-0.00604522,-2.24995,66.1677,154.746,24.0637,-0.338228,0.0218193,25,4568,3
120.7,0.518777,65.8085,-0.0522838,-0.751801,71.1624,166.259,25.6558,-0.105037,0.0218193,25,4569,3
103.92,1.53226,63.7294,0.032471,-2.21389,55.9467,148.037,12.4942,-0.631831,0.0223141,25,4570,3
112.083,0.515182,68.1124,-0.138171,-0.748876,60.8135,159.24,13.8722,-0.353987,0.0223141,25,4571,3
108.25,1.63066,62.674,-0.00604522,-2.19585,70.2273,154.746,24.0637,-0.338228,0.0218193,25,4572,3
116.342,0.545148,67.2876,-0.0522838,-0.732904,75.5198,166.259,25.6558,-0.105037,0.0218193,25,4573,3
99.6995,1.60387,65.1623,0.032471,-2.16258,60.1676,148.037,12.4942,-0.631831,0.0223141,25,4574,3
107.575,0.543533,69.6426,-0.138171,-0.72856,65.3215,159.24,13.8722,-0.353987,0.0223141,25,4575,3
-78.093,3.35125,-54.2527,-2.4416,-4.84177,-37.2706,5.09622,-7.24401,-115.657,0.0922591,25,4576,3
-21.7806,7.49378,-15.4227,-5.81057,-10.8278,-10.1752,10.9194,-11.0503,-37.6354,0.0922591,25,4577,3
-75.1918,2.60312,-54.7791,-2.38451,-3.76044,-33.9738,6.59699,-5.02629,-113.121,0.0932817,25,4578,3
-20.8428,5.62153,-16.0599,-7.54231,-8.12007,-8.75811,8.50696,-9.22007,-36.4301,0.0932817,25,4579,3
-74.5155,3.50759,-55.4671,-2.4416,-4.72974,-40.8481,5.09622,-7.24401,-115.657,0.0922591,25,4580,3
-20.7631,7.8444,-15.7682,-5.81057,-10.5766,-11.1927,10.9194,-11.0503,-37.6354,0.0922591,25,4581,3
-71.58,2.72413,-56.0051,-2.38451,-3.67373,-37.5856,6.59699,-5.02629,-113.121,0.0932817,25,4582,3
-19.7834,5.88216,-16.4195,-7.54231,-7.9333,-9.81752,8.50696,-9.22007,-36.4301,0.0932817,25,4583,3
20.5233,8.97875,13.4361,-8.80299,-12.9747,10.4161,29.8303,12.7352,-20.429,0.0461296,25,4584,3
48.1578,9.04745,33.573,-8.82122,-13.0785,22.9009,71.4186,11.9179,-21.0991,0.0461296,25,4585,3
20.1729,6.66453,11.9404,-14.6672,-9.62213,11.1905,28.4479,8.89482,-20.6464,0.0466408,25,4586,3
46.4585,7.76564,30.8006,-21.789,-11.1943,23.2936,67.8596,8.50862,-28.405,0.0466408,25,4587,3
19.6398,9.40003,13.736,-8.80299,-12.6728,11.2996,29.8303,12.7352,-20.429,0.0461296,25,4588,3
45.9485,9.47618,34.323,-8.82122,-12.7712,25.1102,71.4186,11.9179,-21.0991,0.0461296,25,4589,3
19.3875,6.96924,12.207,-14.6672,-9.40378,11.9759,28.4479,8.89482,-20.6464,0.0466408,25,4590,3
44.4373,8.10399,31.4867,-21.789,-10.9518,25.3148,67.8596,8.50862,-28.405,0.0466408,25,4591,3
68.8373,7.74848,49.4208,-6.07199,-11.2097,31.6562,103.091,9.46139,-18.1307,0.0230648,25,4592,3
83.5287,5.11039,59.7994,-2.59873,-7.40683,38.5356,124.984,6.58933,-12.1073,0.0230648,25,4593,3
64.5118,9.72039,46.0101,-27.7074,-13.9855,29.9167,96.6849,7.30294,-37.2668,0.0233204,25,4594,3
74.9258,11.9926,57.8599,-29.4679,-17.2149,31.4202,116.044,5.96275,-45.1288,0.0233204,25,4595,3
65.5834,8.12412,50.5254,-6.07199,-10.9405,34.9102,103.091,9.46139,-18.1307,0.0230648,25,4596,3
79.588,5.37106,61.1371,-2.59873,-7.22003,42.4763,124.984,6.58933,-12.1073,0.0230648,25,4597,3
61.5003,10.1188,47.0324,-27.7074,-13.7,32.9281,96.6849,7.30294,-37.2668,0.0233204,25,4598,3
71.1382,12.4464,59.1456,-29.4679,-16.8896,35.2077,116.044,5.96275,-45.1288,0.0233204,25,4599,3
96.2162,2.22346,66.2956,-0.676695,-3.24262,46.3243,142.169,5.59575,-5.90138,0.0115324,25,4600,3
104.546,1.16611,70.2468,-1.61754,-1.70647,51.6867,153.284,8.77274,-7.44193,0.0115324,25,4601,3
80.9252,13.1149,69.1135,-26.5077,-18.7721,28.9465,131.149,6.07437,-53.8596,0.0116602,25,4602,3
84.4395,10.035,78.1368,-20.0946,-14.2551,25.6188,142.955,6.59839,-59.5896,0.0116602,25,4603,3
91.8375,2.35583,67.782,-0.676695,-3.14777,50.703,142.169,5.59575,-5.90138,0.0115324,25,4604,3
99.9119,1.24107,71.82,-1.61754,-1.65275,56.3209,153.284,8.77274,-7.44193,0.0115324,25,4605,3
76.3908,13.5603,70.6527,-26.5077,-18.453,33.481,131.149,6.07437,-53.8596,0.0116602,25,4606,3
79.263,10.2729,79.894,-20.0946,-14.0846,30.7952,142.955,6.59839,-59.5896,0.0116602,25,4607,3
-250.946,0.0548525,-0.0156897,-1.6153,-0.126607,-250.916,-1.61517,-250.909,-250.952,0.00167713,25,4608,3
-68.2537,0.116928,-0.00428993,-1.10911,-0.269797,-68.2457,-0.183943,-68.2445,-69.1802,0.00167713,25,4609,3
-250.865,0.0857639,-0.0377359,-1.61512,-0.197922,-250.795,-1.61482,-250.779,-250.882,0.00266631,25,4610,3
-68.2318,0.182674,-0.010333,-1.10918,-0.421499,-68.2125,-0.170956,-68.2096,-69.173,0.00266631,25,4611,3
-250.945,0.0590497,-0.0166157,-1.6153,-0.124708,-250.917,-1.61518,-250.909,-250.952,0.00167713,25,4612,3
-68.2534,0.125778,-0.00454228,-1.10911,-0.26579,-68.246,-0.183942,-68.2445,-69.1802,0.00167713,25,4613,3
-250.863,0.0922596,-0.0399584,-1.61512,-0.194974,-250.797,-1.61482,-250.779,-250.882,0.00266631,25,4614,3
-68.2312,0.196456,-0.0109408,-1.10918,-0.415249,-68.2132,-0.170956,-68.2096,-69.173,0.00266631,25,4615,3
68.6275,0.119111,0.00430002,-0.607235,-0.274841,68.6195,68.6294,68.6192,-0.608877,0.000838566,25,4616,3
159.919,0.0968862,0.0100314,-0.305329,-0.223568,159.9,159.923,159.896,-0.305739,0.000838566,25,4617,3
68.6056,0.186212,0.0103576,-0.60706,-0.429643,68.5862,68.6101,68.5856,-0.611001,0.00133315,25,4618,3
159.867,0.151394,0.0241142,-0.30522,-0.349334,159.822,159.878,159.813,-0.306201,0.00133315,25,4619,3
68.6272,0.128128,0.00455336,-0.607236,-0.270759,68.6197,68.6294,68.6192,-0.608878,0.000838566,25,4620,3
159.918,0.104235,0.0106226,-0.305328,-0.220241,159.9,159.923,159.896,-0.305738,0.000838566,25,4621,3
68.6049,0.200247,0.0109669,-0.60706,-0.423279,68.5869,68.6101,68.5856,-0.611001,0.00133315,25,4622,3
159.866,0.162824,0.0255331,-0.305221,-0.34415,159.824,159.878,159.813,-0.306201,0.00133315,25,4623,3
228.443,0.0691171,0.0143334,-0.128623,-0.159513,228.416,228.449,228.41,-0.128764,0.000419283,25,4624,3
274.169,0.0446945,0.0171606,-0.049571,-0.103172,274.137,274.177,274.13,-0.0496223,0.000419283,25,4625,3
228.37,0.107984,0.0343741,-0.128872,-0.249187,228.305,228.385,228.291,-0.129207,0.000666576,25,4626,3
274.082,0.0698965,0.0411911,-0.0502437,-0.161318,274.005,274.1,273.987,-0.0503645,0.000666576,25,4627,3
228.442,0.0743843,0.0151786,-0.128623,-0.15713,228.417,228.449,228.41,-0.128763,0.000419283,25,4628,3
274.168,0.0481289,0.0181731,-0.0495691,-0.10162,274.138,274.177,274.13,-0.0496204,0.000419283,25,4629,3
228.368,0.116152,0.0363967,-0.128872,-0.245481,228.308,228.385,228.291,-0.129207,0.000666576,25,4630,3
274.079,0.0752015,0.0436165,-0.0502438,-0.15891,274.007,274.1,273.987,-0.0503645,0.000666576,25,4631,3
308.49,0.0236563,0.0192317,-0.0128778,-0.0546333,308.454,308.498,308.445,-0.0128915,0.000209641,25,4632,3
331.385,0.0081604,0.0205657,-0.00186569,-0.0188752,331.347,331.394,331.338,-0.00186879,0.000209641,25,4633,3
308.391,0.0370902,0.0463975,-0.0137744,-0.0856214,308.304,308.411,308.284,-0.0138053,0.000333288,25,4634,3
331.279,0.0126891,0.0497012,-0.00213514,-0.0293263,331.186,331.301,331.165,-0.00214046,0.000333288,25,4635,3
308.488,0.025504,0.0203648,-0.0128831,-0.0537945,308.455,308.498,308.445,-0.0128969,0.000209641,25,4636,3
331.384,0.00884274,0.0217841,-0.00186489,-0.0185609,331.348,331.394,331.338,-0.00186798,0.000209641,25,4637,3
308.388,0.0399219,0.0491304,-0.013774,-0.0843345,308.307,308.411,308.284,-0.0138049,0.000333288,25,4638,3
331.276,0.0136854,0.0526383,-0.00213332,-0.0288741,331.19,331.301,331.165,-0.00213864,0.000333288,25,4639,3
-250.663,0.134264,-0.0935282,-1.6158,-0.309798,-250.488,-1.61507,-250.448,-250.704,0.00830233,25,4640,3
-68.1765,0.286795,-0.0256273,-1.10928,-0.661654,-68.1285,-0.140948,-68.121,-69.1523,0.00830233,25,4641,3
-250.283,0.196308,-0.197902,-1.61445,-0.453298,-249.913,-1.61289,-249.828,-250.369,0.0122607,25,4642,3
-68.0727,0.418855,-0.0539449,-1.10793,-0.966773,-67.9717,-0.0848245,-67.9562,-69.1113,0.0122607,25,4643,3
-250.657,0.144392,-0.0990671,-1.61581,-0.305209,-250.494,-1.61507,-250.448,-250.704,0.00830233,25,4644,3
-68.1748,0.308361,-0.0271375,-1.10928,-0.651883,-68.1302,-0.140948,-68.121,-69.1523,0.00830233,25,4645,3
-250.27,0.211372,-0.20961,-1.61445,-0.446472,-249.926,-1.61289,-249.828,-250.369,0.0122607,25,4646,3
-68.0691,0.450689,-0.0571217,-1.10793,-0.95235,-67.9753,-0.0848245,-67.9562,-69.1113,0.0122607,25,4647,3
68.5499,0.29202,0.0257618,-0.60705,-0.673731,68.5017,68.5611,68.5003,-0.616817,0.00415116,25,4648,3
159.738,0.237379,0.0598256,-0.304829,-0.547668,159.626,159.764,159.603,-0.30726,0.00415116,25,4649,3
68.4459,0.426579,0.0540637,-0.608432,-0.984579,68.3446,68.4693,68.3418,-0.629114,0.00613036,25,4650,3
159.496,0.347228,0.126174,-0.306771,-0.801499,159.259,159.55,159.21,-0.311931,0.00613036,25,4651,3
68.5482,0.313996,0.0272816,-0.60705,-0.663774,68.5034,68.5611,68.5003,-0.616817,0.00415116,25,4652,3
159.734,0.255244,0.0633628,-0.304829,-0.539573,159.63,159.764,159.603,-0.30726,0.00415116,25,4653,3
68.4422,0.458982,0.0572522,-0.608432,-0.969897,68.3482,68.4693,68.3418,-0.629114,0.00613036,25,4654,3
159.487,0.373656,0.133621,-0.306771,-0.789525,159.268,159.55,159.21,-0.311931,0.00613036,25,4655,3
228.186,0.169183,0.0852417,-0.128335,-0.390344,228.026,228.223,227.99,-0.129164,0.00207558,25,4656,3
273.861,0.109505,0.102088,-0.0499424,-0.252647,273.67,273.905,273.626,-0.0502405,0.00207558,25,4657,3
227.839,0.247955,0.180482,-0.13139,-0.572427,227.5,227.917,227.424,-0.133158,0.00306518,25,4658,3
273.445,0.1606,0.216736,-0.052608,-0.370841,273.039,273.539,272.945,-0.053245,0.00306518,25,4659,3
228.18,0.181926,0.0902837,-0.128335,-0.384571,228.032,228.223,227.99,-0.129164,0.00207558,25,4660,3
273.854,0.117749,0.108127,-0.0499424,-0.248912,273.677,273.905,273.626,-0.0502405,0.00207558,25,4661,3
227.826,0.266885,0.191132,-0.13139,-0.563849,227.513,227.917,227.424,-0.133158,0.00306518,25,4662,3
273.43,0.172922,0.229533,-0.052608,-0.365258,273.053,273.539,272.945,-0.053245,0.00306518,25,4663,3
308.142,0.0581534,0.114804,-0.0136445,-0.13416,307.927,308.192,307.878,-0.0137202,0.00103779,25,4664,3
331.013,0.0198927,0.122949,-0.000887173,-0.0458965,330.783,331.067,330.729,-0.000899137,0.00103779,25,4665,3
307.676,0.0843113,0.243538,-0.0138718,-0.194803,307.22,307.782,307.114,-0.0140302,0.00153259,25,4666,3
330.517,0.0270187,0.258976,0.00251104,-0.0626676,330.032,330.63,329.92,0.00248759,0.00153259,25,4667,3
308.135,0.0625238,0.121596,-0.0136446,-0.13218,307.935,308.192,307.878,-0.0137203,0.00103779,25,4668,3
331.005,0.0213912,0.13026,-0.000887275,-0.0452174,330.791,331.067,330.729,-0.000899239,0.00103779,25,4669,3
307.66,0.09087,0.257948,-0.0138718,-0.191831,307.236,307.782,307.114,-0.0140302,0.00153259,25,4670,3
330.5,0.0293013,0.274419,0.00251103,-0.0616333,330.05,330.63,329.92,0.00248759,0.00153259,25,4671,3
-249.386,0.293536,-0.444783,-1.61811,-0.677699,-248.552,-1.61457,-248.363,-249.579,0.0363966,25,4672,3
-67.8268,0.626015,-0.122118,-1.10822,-1.44473,-67.5981,0.0252236,-67.5627,-68.9956,0.0363966,25,4673,3
-247.754,0.409892,-0.895099,-1.63049,-0.948423,-246.076,-1.62348,-245.695,-248.142,0.0522301,25,4674,3
-67.3702,0.898448,-0.24872,-1.10017,-2.07563,-66.9045,0.21191,-66.8331,-68.7536,0.0522301,25,4675,3
-249.356,0.31598,-0.471216,-1.61811,-0.66753,-248.582,-1.61457,-248.363,-249.579,0.0363966,25,4676,3
-67.8186,0.673445,-0.129311,-1.10822,-1.42324,-67.6063,0.0252236,-67.5627,-68.9956,0.0363966,25,4677,3
-247.693,0.442802,-0.948445,-1.63049,-0.933512,-246.137,-1.62348,-245.695,-248.142,0.0522301,25,4678,3
-67.3535,0.968152,-0.263317,-1.10017,-2.04405,-66.9211,0.21191,-66.8331,-68.7536,0.0522301,25,4679,3
68.1994,0.636782,0.122338,-0.60839,-1.46967,67.9703,68.2525,67.9639,-0.655077,0.0181983,25,4680,3
158.923,0.51858,0.283792,-0.306996,-1.19686,158.391,159.046,158.28,-0.318676,0.0181983,25,4681,3
67.7446,0.912516,0.248079,-0.612844,-2.10818,67.28,67.8523,67.2683,-0.708879,0.0261151,25,4682,3
157.865,0.742788,0.576814,-0.314018,-1.71637,156.785,158.115,156.559,-0.338091,0.0261151,25,4683,3
68.1912,0.685097,0.129565,-0.60839,-1.44778,67.9785,68.2525,67.9639,-0.655077,0.0181983,25,4684,3
158.904,0.55792,0.300601,-0.306996,-1.17903,158.41,159.046,158.28,-0.318676,0.0181983,25,4685,3
67.7279,0.983352,0.262716,-0.612844,-2.07609,67.2967,67.8523,67.2683,-0.708879,0.0261151,25,4686,3
157.826,0.80068,0.610899,-0.314018,-1.69014,156.824,158.115,156.559,-0.338091,0.0261151,25,4687,3
227.02,0.371251,0.405369,-0.133784,-0.856841,226.26,227.196,226.089,-0.13781,0.00909915,25,4688,3
272.461,0.241289,0.48684,-0.0542558,-0.556927,271.549,272.673,271.34,-0.0557191,0.00909915,25,4689,3
225.515,0.527616,0.824047,-0.132028,-1.21971,223.972,225.873,223.622,-0.140226,0.0130575,25,4690,3
270.674,0.333737,0.983009,-0.0379223,-0.772329,268.832,271.1,268.408,-0.0407428,0.0130575,25,4691,3
226.992,0.399424,0.42937,-0.133784,-0.844075,226.288,227.196,226.089,-0.13781,0.00909915,25,4692,3
272.428,0.259627,0.515698,-0.0542558,-0.548618,271.582,272.673,271.34,-0.0557191,0.00909915,25,4693,3
225.46,0.569144,0.872815,-0.132028,-1.20089,224.027,225.873,223.622,-0.140226,0.0130575,25,4694,3
270.607,0.36062,1.04143,-0.0379223,-0.760149,268.898,271.1,268.408,-0.0407428,0.0130575,25,4695,3
306.571,0.127562,0.547192,-0.0114495,-0.294539,305.546,306.808,305.309,-0.0118172,0.00454957,25,4696,3
329.333,0.0413115,0.584592,0.0132138,-0.0956335,328.237,329.587,327.984,0.013163,0.00454957,25,4697,3
304.583,0.163872,1.09439,0.0191474,-0.380501,302.531,305.057,302.057,0.0185404,0.00652877,25,4698,3
327.223,0.038425,1.1577,0.0535294,-0.0913007,325.051,327.724,324.55,0.0534256,0.00652877,25,4699,3
306.534,0.137339,0.579727,-0.0114495,-0.290109,305.583,306.808,305.309,-0.0118172,0.00454957,25,4700,3
329.293,0.0446625,0.619591,0.0132138,-0.0941151,328.277,329.587,327.984,0.013163,0.00454957,25,4701,3
304.508,0.178027,1.15983,0.0191474,-0.374087,302.606,305.057,302.057,0.0185404,0.00652877,25,4702,3
327.143,0.0433081,1.22753,0.0535293,-0.0890882,325.131,327.724,324.55,0.0534256,0.00652877,25,4703,3
-243.968,0.607829,-1.92722,-1.65033,-1.40512,-240.355,-1.63431,-239.535,-244.803,0.151961,25,4704,3
-66.3312,1.30872,-0.533688,-1.09101,-3.02185,-65.3317,0.536719,-65.1841,-68.1066,0.151961,25,4705,3
-237.231,0.794194,-3.80219,-1.83141,-1.84618,-230.1,-1.8016,-228.482,-238.879,0.215295,25,4706,3
-64.4448,1.90121,-1.0798,-1.15179,-4.39938,-62.4218,1.01366,-62.1477,-66.8844,0.215295,25,4707,3
-243.836,0.655654,-2.04243,-1.65033,-1.38345,-240.486,-1.63431,-239.535,-244.803,0.151961,25,4708,3
-66.2954,1.40904,-0.565099,-1.09101,-2.97639,-65.3676,0.536719,-65.1841,-68.1066,0.151961,25,4709,3
-236.97,0.864383,-4.03107,-1.83141,-1.81438,-230.361,-1.8016,-228.482,-238.879,0.215295,25,4710,3
-64.3718,2.05407,-1.1438,-1.15179,-4.33011,-62.4948,1.01366,-62.1477,-66.8844,0.215295,25,4711,3
66.7038,1.33088,0.53208,-0.621816,-3.07308,65.707,66.9347,65.6886,-0.834277,0.0759804,25,4712,3
155.441,1.08574,1.23834,-0.328569,-2.50732,153.121,155.978,152.638,-0.382616,0.0759804,25,4713,3
64.8215,1.94328,1.07422,-0.554138,-4.49638,62.8084,65.2875,62.8189,-1.03072,0.107648,25,4714,3
151.072,1.54376,2.48915,-0.179819,-3.5748,146.407,152.151,145.443,-0.295239,0.107648,25,4715,3
66.6679,1.43296,0.563546,-0.621816,-3.02683,65.7429,66.9347,65.6886,-0.834277,0.0759804,25,4716,3
155.357,1.16922,1.31171,-0.328569,-2.46949,153.205,155.978,152.638,-0.382616,0.0759804,25,4717,3
64.7486,2.09927,1.13812,-0.554138,-4.4257,62.8813,65.2875,62.8189,-1.03072,0.107648,25,4718,3
150.903,1.6698,2.63752,-0.179819,-3.51769,146.576,152.151,145.443,-0.295239,0.107648,25,4719,3
222.059,0.775735,1.76595,-0.140678,-1.79195,218.75,222.825,218.003,-0.159462,0.0379902,25,4720,3
266.536,0.497049,2.11014,-0.0259876,-1.14907,262.58,267.45,261.672,-0.0326347,0.0379902,25,4721,3
215.872,1.04756,3.51706,0.0611439,-2.43024,209.279,217.397,207.79,0.0256068,0.0538238,25,4722,3
259.183,0.617243,4.16066,0.19515,-1.43782,251.38,260.986,249.587,0.184598,0.0538238,25,4723,3
221.94,0.835782,1.87085,-0.140678,-1.76474,218.87,222.825,218.003,-0.159462,0.0379902,25,4724,3
266.392,0.536192,2.23607,-0.0259876,-1.13134,262.724,267.45,261.672,-0.0326347,0.0379902,25,4725,3
215.632,1.13645,3.7275,0.0611439,-2.38997,209.519,217.397,207.79,0.0256068,0.0538238,25,4726,3
258.897,0.674032,4.4109,0.19515,-1.41209,251.666,260.986,249.587,0.184598,0.0538238,25,4727,3
299.935,0.251297,2.3608,0.0572082,-0.582311,295.509,300.959,294.487,0.0557108,0.0189951,25,4728,3
322.237,0.0658303,2.51884,0.1189,-0.154648,317.512,323.328,316.421,0.118675,0.0189951,25,4729,3
291.728,0.252826,4.6194,0.280866,-0.597461,283.063,293.73,281.063,0.278459,0.0269119,25,4730,3
313.472,-0.0090341,4.90426,0.332781,0.00642727,304.27,315.597,302.148,0.330161,0.0269119,25,4731,3
299.774,0.272113,2.50241,0.0572082,-0.57288,295.67,300.959,294.487,0.0557108,0.0189951,25,4732,3
322.063,0.0728659,2.67077,0.1189,-0.151461,317.685,323.328,316.421,0.118675,0.0189951,25,4733,3
291.41,0.282495,4.89861,0.280866,-0.584018,283.381,293.73,281.063,0.278459,0.0269119,25,4734,3
313.133,0.00112432,5.202,0.332781,0.01103,304.609,315.597,302.148,0.330161,0.0269119,25,4735,3
-221.465,1.254,-7.98332,-1.84793,-2.89282,-206.5,-1.7565,-203.13,-224.927,0.620593,25,4736,3
-60.1864,2.66192,-2.19813,-1.14883,-6.14105,-56.0672,1.85108,-55.603,-63.6504,0.620593,25,4737,3
-193.674,1.80058,-15.5622,-1.57028,-4.14089,-164.524,-1.32493,-158.019,-200.425,0.873929,25,4738,3
-52.6579,3.67862,-4.24072,-1.09957,-8.47352,-44.7145,3.31703,-44.0323,-57.7567,0.873929,25,4739,3
-220.921,1.34812,-8.46063,-1.84793,-2.85017,-207.044,-1.7565,-203.13,-224.927,0.620593,25,4740,3
-60.0373,2.86196,-2.32891,-1.14883,-6.05041,-56.2163,1.85108,-55.603,-63.6504,0.620593,25,4741,3
-192.626,1.92608,-16.4815,-1.57028,-4.08403,-165.573,-1.32493,-158.019,-200.425,0.873929,25,4742,3
-52.3722,3.94525,-4.49125,-1.09957,-8.35272,-45.0002,3.31703,-44.0323,-57.7567,0.873929,25,4743,3
60.5359,2.71063,2.20195,-0.561027,-6.25337,56.4093,61.5015,56.577,-1.69426,0.310296,25,4744,3
141.075,2.20775,5.12267,-0.190504,-5.09328,131.474,143.296,129.557,-0.495453,0.310296,25,4745,3
52.9702,3.74364,4.25636,-0.617072,-8.62353,44.9975,54.8893,45.5802,-3.11891,0.436965,25,4746,3
123.425,3.07233,9.92016,-0.329553,-7.07488,104.843,127.728,101.286,-1.07573,0.436965,25,4747,3
60.3864,2.91429,2.33307,-0.561027,-6.1611,56.5588,61.5015,56.577,-1.69426,0.310296,25,4748,3
140.726,2.37367,5.42797,-0.190504,-5.01811,131.822,143.296,129.557,-0.495453,0.310296,25,4749,3
52.6835,4.01516,4.50783,-0.617072,-8.5005,45.2842,54.8893,45.5802,-3.11891,0.436965,25,4750,3
122.756,3.29345,10.5062,-0.329553,-6.97469,105.511,127.728,101.286,-1.07573,0.436965,25,4751,3
201.565,1.57827,7.29422,0.0540188,-3.64111,187.893,204.727,184.838,-0.054076,0.155148,25,4752,3
241.97,1.02225,8.7208,0.199484,-2.35831,225.622,245.751,221.881,0.159832,0.155148,25,4753,3
176.318,2.2325,14.1676,-0.167575,-5.1374,149.78,182.463,143.916,-0.448808,0.218482,25,4754,3
211.624,1.49119,16.9961,-0.100228,-3.42723,179.789,218.997,172.53,-0.214318,0.218482,25,4755,3
201.068,1.69691,7.72955,0.0540188,-3.58735,188.389,204.727,184.838,-0.054076,0.155148,25,4756,3
241.375,1.09905,9.24213,0.199484,-2.32351,226.217,245.751,221.881,0.159832,0.155148,25,4757,3
175.363,2.39051,15.0045,-0.167575,-5.0658,150.735,182.463,143.916,-0.448808,0.218482,25,4758,3
210.48,1.59352,18.0001,-0.100228,-3.38087,180.933,218.997,172.53,-0.214318,0.218482,25,4759,3
272.318,0.539465,9.77967,0.298733,-1.24441,253.984,276.558,249.754,0.288463,0.0775741,25,4760,3
292.581,0.181305,10.4764,0.363304,-0.418068,272.94,297.123,268.4,0.361281,0.0775741,25,4761,3
238.133,0.847639,19.1142,-0.0712697,-1.94274,202.33,246.424,194.075,-0.107996,0.109241,25,4762,3
255.827,0.370148,20.5222,-0.0626074,-0.841554,217.386,264.729,208.494,-0.0720732,0.109241,25,4763,3
271.65,0.579906,10.3651,0.298733,-1.22609,254.651,276.558,249.754,0.288463,0.0775741,25,4764,3
291.865,0.194777,11.1043,0.363304,-0.411964,273.656,297.123,268.4,0.361281,0.0775741,25,4765,3
236.846,0.901743,20.2433,-0.0712697,-1.91823,203.617,246.424,194.075,-0.107996,0.109241,25,4766,3
254.444,0.388658,21.7345,-0.0626074,-0.833167,218.768,264.729,208.494,-0.0720732,0.109241,25,4767,3
-167.868,2.06104,-22.7817,-1.41578,-4.76629,-125.201,-1.02598,-115.708,-177.751,0.531966,25,4768,3
-45.6647,4.56496,-6.17542,-1.05601,-10.5412,-34.098,4.93065,-33.4871,-52.2624,0.531966,25,4769,3
-147.083,2.38013,-28.5277,-1.57626,-5.48762,-93.6459,-0.853127,-81.9947,-159.458,0.5953,25,4770,3
-39.9862,5.03661,-7.76173,-1.1217,-11.6147,-25.4464,6.4507,-25.3872,-47.6177,0.5953,25,4771,3
-166.337,2.22455,-24.1247,-1.41578,-4.6922,-126.733,-1.02598,-115.708,-177.751,0.531966,25,4772,3
-45.2491,4.91539,-6.53993,-1.05601,-10.3824,-34.5137,4.93065,-33.4871,-52.2624,0.531966,25,4773,3
-145.161,2.55648,-30.2138,-1.57626,-5.40771,-95.5685,-0.853127,-81.9947,-159.458,0.5953,25,4774,3
-39.4627,5.41153,-8.22082,-1.1217,-11.4448,-25.9698,6.4507,-25.3872,-47.6177,0.5953,25,4775,3
45.9438,4.6577,6.20294,-0.667099,-10.7551,34.3257,48.6346,35.8873,-4.91951,0.265983,25,4776,3
107.034,3.75411,14.4707,-0.440408,-8.67099,79.9306,113.311,74.9484,-1.73549,0.265983,25,4777,3
40.2483,5.13012,7.79209,-0.600064,-11.8304,25.6518,43.6282,28.485,-6.81318,0.29765,25,4778,3
93.7657,4.1811,18.1652,-0.295367,-9.64127,59.7381,101.645,54.0819,-2.51844,0.29765,25,4779,3
45.5264,5.01509,6.56899,-0.667099,-10.5932,34.7431,48.6346,35.8873,-4.91951,0.265983,25,4780,3
106.06,4.04394,15.3245,-0.440408,-8.53967,80.9042,113.311,74.9484,-1.73549,0.265983,25,4781,3
39.7229,5.51208,8.25288,-0.600064,-11.6574,26.1772,43.6282,28.485,-6.81318,0.29765,25,4782,3
92.5409,4.4919,19.2393,-0.295367,-9.50044,60.9629,101.645,54.0819,-2.51844,0.29765,25,4783,3
152.875,2.63145,20.698,-0.31911,-6.08172,114.109,161.854,105.572,-0.761153,0.132991,25,4784,3
183.447,1.65418,24.8763,-0.275319,-3.82794,136.857,194.238,126.218,-0.428484,0.132991,25,4785,3
133.947,2.99446,25.9498,-0.13243,-6.90412,85.3378,145.203,74.8942,-0.944825,0.148825,25,4786,3
160.76,1.94858,31.1471,-0.0854123,-4.492,102.416,174.271,89.2078,-0.387566,0.148825,25,4787,3
151.483,2.83744,21.9187,-0.31911,-5.98839,115.501,161.854,105.572,-0.761153,0.132991,25,4788,3
181.774,1.78732,26.3427,-0.275319,-3.76761,138.529,194.238,126.218,-0.428484,0.132991,25,4789,3
132.198,3.21641,27.484,-0.13243,-6.80356,87.0872,145.203,74.8942,-0.944825,0.148825,25,4790,3
158.661,2.09248,32.9881,-0.0854123,-4.4268,104.515,174.271,89.2078,-0.387566,0.148825,25,4791,3
206.387,0.820663,28.0212,-0.262915,-1.90599,153.908,218.543,141.787,-0.298264,0.0664957,25,4792,3
221.688,0.215331,30.1242,-0.266031,-0.510441,165.271,234.756,152.209,-0.272065,0.0664957,25,4793,3
180.884,1.04265,35.0498,-0.0867472,-2.40301,115.23,196.088,100.107,-0.166436,0.0744125,25,4794,3
194.307,0.371511,37.6552,-0.112946,-0.855858,123.773,210.64,107.453,-0.12588,0.0744125,25,4795,3
204.504,0.891897,29.6725,-0.262915,-1.87371,155.791,218.543,141.787,-0.298264,0.0664957,25,4796,3
219.664,0.241792,31.8991,-0.266031,-0.498452,167.295,234.756,152.209,-0.272065,0.0664957,25,4797,3
178.523,1.11921,37.121,-0.0867472,-2.36832,117.592,196.088,100.107,-0.166436,0.0744125,25,4798,3
191.77,0.398514,39.88,-0.112946,-0.843623,126.31,210.64,107.453,-0.12588,0.0744125,25,4799,3
-130.163,2.53045,-33.1956,-1.54698,-5.84521,-67.9825,-0.359558,-54.7708,-144.562,0.3214,25,4800,3
-35.3807,5.47325,-9.02319,-1.0902,-12.6328,-18.478,8.43275,-19.497,-43.8846,0.3214,25,4801,3
-117.96,2.72357,-36.5792,-1.57184,-6.28215,-49.4385,0.482249,-35.6261,-133.826,0.337234,25,4802,3
-32.0742,5.7438,-9.90417,-0.96696,-13.2484,-13.5212,10.3562,-15.778,-41.1406,0.337234,25,4803,3
-127.926,2.72622,-35.1573,-1.54698,-5.75651,-70.2194,-0.359558,-54.7708,-144.562,0.3214,25,4804,3
-34.7722,5.88909,-9.55684,-1.0902,-12.4444,-19.0865,8.43275,-19.497,-43.8846,0.3214,25,4805,3
-115.494,2.9274,-38.7422,-1.57184,-6.1898,-51.9049,0.482249,-35.6261,-133.826,0.337234,25,4806,3
-31.4063,6.17355,-10.4899,-0.96696,-13.0537,-14.1891,10.3562,-15.778,-41.1406,0.337234,25,4807,3
35.6326,5.57138,9.06133,-0.602168,-12.8593,18.6587,39.5631,23.2742,-9.14808,0.1607,25,4808,3
83.0011,4.52172,21.1226,-0.324174,-10.4377,43.4337,92.1631,37.8487,-3.9012,0.1607,25,4809,3
32.2679,5.79241,10.0443,-0.440971,-13.3608,13.4523,36.6307,19.778,-11.1295,0.168617,25,4810,3
75.2337,4.6802,23.305,-0.184687,-10.795,31.5777,85.3423,26.8294,-5.54508,0.168617,25,4811,3
35.0217,5.99465,9.59713,-0.602168,-12.6675,19.2696,39.5631,23.2742,-9.14808,0.1607,25,4812,3
81.577,4.86609,22.3715,-0.324174,-10.2817,44.8578,92.1631,37.8487,-3.9012,0.1607,25,4813,3
31.5905,6.22595,10.6384,-0.440971,-13.1643,14.1296,36.6307,19.778,-11.1295,0.168617,25,4814,3
73.6622,5.03025,24.6832,-0.184687,-10.6364,33.1492,85.3423,26.8294,-5.54508,0.168617,25,4815,3
118.567,3.20766,30.1785,-0.177743,-7.4065,62.0364,131.657,50.2832,-1.51472,0.0803501,25,4816,3
142.29,2.04859,36.2379,-0.12683,-4.73338,74.4101,158.009,59.1712,-0.606675,0.0803501,25,4817,3
107.524,3.3263,33.2387,-0.0594784,-7.67198,45.2603,121.942,33.0485,-2.26519,0.0843085,25,4818,3
129.09,2.15029,39.8629,-0.0218075,-4.95959,54.4172,146.381,37.9567,-0.852026,0.0843085,25,4819,3
116.533,3.45354,31.9626,-0.177743,-7.2951,64.0708,131.657,50.2832,-1.51472,0.0803501,25,4820,3
139.848,2.20802,38.3796,-0.12683,-4.66114,76.8522,158.009,59.1712,-0.606675,0.0803501,25,4821,3
105.283,3.57492,35.2043,-0.0594784,-7.55933,47.5016,121.942,33.0485,-2.26519,0.0843085,25,4822,3
126.402,2.31103,42.2202,-0.0218075,-4.88676,57.1052,146.381,37.9567,-0.852026,0.0843085,25,4823,3
160.083,1.05009,40.7999,-0.114366,-2.4312,83.6597,177.781,66.0765,-0.22894,0.040175,25,4824,3
171.937,0.32185,43.8581,-0.123901,-0.752326,89.7867,190.962,70.7779,-0.139739,0.040175,25,4825,3
145.279,1.13847,44.8386,-0.0182073,-2.62604,61.2853,164.727,42.0476,-0.229328,0.0421542,25,4826,3
156.067,0.39262,48.1655,-0.0443346,-0.906925,65.8423,176.959,44.9811,-0.075129,0.0421542,25,4827,3
157.335,1.1355,43.2104,-0.114366,-2.3925,86.4084,177.781,66.0765,-0.22894,0.040175,25,4828,3
168.983,0.353419,46.4485,-0.123901,-0.738022,92.7404,190.962,70.7779,-0.139739,0.040175,25,4829,3
142.255,1.22371,47.49,-0.0182073,-2.58742,64.3086,164.727,42.0476,-0.229328,0.0421542,25,4830,3
152.82,0.42299,51.0133,-0.0443346,-0.893165,69.0897,176.959,44.9811,-0.075129,0.0421542,25,4831,3
-108.373,2.87084,-39.2823,-1.59538,-6.62443,-34.7879,1.87701,-21.2214,-125.412,0.174555,25,4832,3
-29.6763,6.00463,-10.5302,-1.12098,-13.8526,-9.95056,12.1169,-13.63,-39.2347,0.174555,25,4833,3
-101.883,2.77231,-41.1331,-1.96392,-6.39622,-24.8312,3.33661,-12.29,-119.725,0.178513,25,4834,3
-28.2507,5.96328,-11.1891,-2.8317,-13.7566,-7.29118,12.4143,-12.4406,-38.3473,0.178513,25,4835,3
-105.724,3.08764,-41.605,-1.59538,-6.5262,-37.4365,1.87701,-21.2214,-125.412,0.174555,25,4836,3
-28.9662,6.45584,-11.1529,-1.12098,-13.6482,-10.6607,12.1169,-13.63,-39.2347,0.174555,25,4837,3
-99.1098,2.98102,-43.5654,-1.96392,-6.30166,-27.6047,3.33661,-12.29,-119.725,0.178513,25,4838,3
-27.4964,6.41088,-11.8506,-2.8317,-13.5538,-8.04545,12.4143,-12.4406,-38.3473,0.178513,25,4839,3
29.4567,5.99369,10.8873,-0.542244,-13.828,9.06171,34.1849,17.1995,-13.4082,0.0872773,25,4840,3
69.103,4.76943,25.0407,-0.178736,-11.0038,22.1947,79.9641,18.9896,-7.83476,0.0872773,25,4841,3
27.1483,6.31969,11.191,-2.82494,-14.5816,6.18222,32.0154,15.2756,-16.7854,0.0892564,25,4842,3
64.3445,5.23413,26.2133,-1.82403,-12.0797,15.2351,75.7153,14.5171,-12.4769,0.0892564,25,4843,3
28.7223,6.44455,11.5313,-0.542244,-13.6238,9.79609,34.1849,17.1995,-13.4082,0.0872773,25,4844,3
67.414,5.12841,26.5219,-0.178736,-10.8412,23.8837,79.9641,18.9896,-7.83476,0.0872773,25,4845,3
26.3922,6.79614,11.8541,-2.82494,-14.3657,6.93834,32.0154,15.2756,-16.7854,0.0892564,25,4846,3
62.5737,5.63086,27.7662,-1.82403,-11.8999,17.0058,75.7153,14.5171,-12.4769,0.0892564,25,4847,3
98.9935,3.32432,35.5687,-0.0263066,-7.66981,32.3637,114.421,20.4409,-3.531,0.0436386,25,4848,3
118.99,2.10839,42.5575,-0.00575912,-4.86548,39.269,137.45,22.1539,-1.35048,0.0436386,25,4849,3
92.6389,3.63494,37.3344,-0.751755,-8.39052,22.6947,108.833,12.8367,-7.08792,0.0446282,25,4850,3
111.864,2.21616,44.4901,-0.216219,-5.11495,28.5177,131.16,12.0327,-3.02718,0.0446282,25,4851,3
96.5945,3.57459,37.6725,-0.0263066,-7.55641,34.7627,114.421,20.4409,-3.531,0.0436386,25,4852,3
116.12,2.26791,45.0743,-0.00575912,-4.7932,42.1388,137.45,22.1539,-1.35048,0.0436386,25,4853,3
90.1171,3.91164,39.5461,-0.751755,-8.26514,25.2166,108.833,12.8367,-7.08792,0.0446282,25,4854,3
108.861,2.38441,47.1239,-0.216219,-5.03871,31.521,131.16,12.0327,-3.02718,0.0446282,25,4855,3
134.01,1.08633,47.8012,-0.00604522,-2.51012,44.4669,154.746,24.0637,-0.338228,0.0218193,25,4856,3
143.998,0.362139,51.3205,-0.0522838,-0.838563,47.864,166.259,25.6558,-0.105037,0.0218193,25,4857,3
126.483,1.07091,49.699,0.032471,-2.47028,33.3844,148.037,12.4942,-0.631831,0.0223141,25,4858,3
136.197,0.359185,53.1176,-0.138171,-0.834994,36.6994,159.24,13.8722,-0.353987,0.0223141,25,4859,3
130.787,1.17094,50.6279,-0.00604522,-2.47178,47.6901,154.746,24.0637,-0.338228,0.0218193,25,4860,3
140.539,0.39169,54.3546,-0.0522838,-0.825174,51.3237,166.259,25.6558,-0.105037,0.0218193,25,4861,3
123.131,1.15115,52.638,0.032471,-2.43392,36.7357,148.037,12.4942,-0.631831,0.0223141,25,4862,3
132.618,0.390955,56.2566,-0.138171,-0.820599,40.2786,159.24,13.8722,-0.353987,0.0223141,25,4863,3
-97.3009,2.34227,-42.312,-2.4416,-5.40253,-18.0627,5.09622,-7.24401,-115.657,0.0922591,25,4864,3
-27.2409,5.23738,-12.0282,-5.81057,-12.0817,-4.71487,10.9194,-11.0503,-37.6354,0.0922591,25,4865,3
-94.5861,1.81948,-42.7225,-2.38451,-4.19603,-14.5795,6.59699,-5.02629,-113.121,0.0932817,25,4866,3
-26.5287,3.92936,-12.5251,-7.54231,-9.06075,-3.07219,8.50696,-9.22007,-36.4301,0.0932817,25,4867,3
-94.4605,2.51747,-44.803,-2.4416,-5.32315,-20.9032,5.09622,-7.24401,-115.657,0.0922591,25,4868,3
-26.433,5.63028,-12.7367,-5.81057,-11.9037,-5.52277,10.9194,-11.0503,-37.6354,0.0922591,25,4869,3
-91.7184,1.95507,-45.2374,-2.38451,-4.13459,-17.4472,6.59699,-5.02629,-113.121,0.0932817,25,4870,3
-25.6876,4.22143,-13.2628,-7.54231,-8.92842,-3.91333,8.50696,-9.22007,-36.4301,0.0932817,25,4871,3
25.2804,6.27498,10.4794,-8.80299,-14.4771,5.659,29.8303,12.7352,-20.429,0.0461296,25,4872,3
60.0444,6.32213,26.1847,-8.82122,-14.5922,11.0143,71.4186,11.9179,-21.0991,0.0461296,25,4873,3
24.4004,4.65929,9.31281,-14.6672,-10.7374,6.96301,28.4479,8.89482,-20.6464,0.0466408,25,4874,3
57.3637,5.43254,24.0236,-21.789,-12.4942,12.3884,67.8596,8.50862,-28.405,0.0466408,25,4875,3
24.5789,6.74707,11.0946,-8.80299,-14.2632,6.36052,29.8303,12.7352,-20.429,0.0461296,25,4876,3
58.2902,6.80255,27.7231,-8.82122,-14.3746,12.7685,71.4186,11.9179,-21.0991,0.0461296,25,4877,3
23.7768,5.00074,9.85969,-14.6672,-10.5827,7.5866,28.4479,8.89482,-20.6464,0.0466408,25,4878,3
55.7589,5.81169,25.431,-21.789,-12.3224,13.9932,67.8596,8.50862,-28.405,0.0466408,25,4879,3
86.3347,5.41269,38.5446,-6.07199,-12.5059,14.1588,103.091,9.46139,-18.1307,0.0230648,25,4880,3
104.701,3.5672,46.6384,-2.59873,-8.26149,17.3638,124.984,6.58933,-12.1073,0.0230648,25,4881,3
80.8024,6.80518,35.8883,-27.7074,-15.6131,13.6261,96.6849,7.30294,-37.2668,0.0233204,25,4882,3
95.412,8.40366,45.1312,-29.4679,-19.2237,10.934,116.044,5.96275,-45.1288,0.0233204,25,4883,3
83.7512,5.83363,40.8103,-6.07199,-12.3152,16.7424,103.091,9.46139,-18.1307,0.0230648,25,4884,3
101.572,3.8593,49.3823,-2.59873,-8.12914,20.4926,124.984,6.58933,-12.1073,0.0230648,25,4885,3
78.4114,7.2516,37.9852,-27.7074,-15.4109,16.0171,96.6849,7.30294,-37.2668,0.0233204,25,4886,3
92.4048,8.91224,47.7684,-29.4679,-18.9933,13.9412,116.044,5.96275,-45.1288,0.0233204,25,4887,3
119.688,1.54814,51.7027,-0.676695,-3.61409,22.8529,142.169,5.59575,-5.90138,0.0115324,25,4888,3
129.417,0.810786,54.7854,-1.61754,-1.90117,26.8162,153.284,8.77274,-7.44193,0.0115324,25,4889,3
105.395,9.20063,53.9068,-26.5077,-20.97,4.47626,131.149,6.07437,-53.8596,0.0116602,25,4890,3
112.102,7.0612,60.9341,-20.0946,-15.9389,-2.04417,142.955,6.59839,-59.5896,0.0116602,25,4891,3
116.211,1.69646,54.7516,-0.676695,-3.54689,26.3296,142.169,5.59575,-5.90138,0.0115324,25,4892,3
125.737,0.89479,58.0122,-1.61754,-1.86311,30.4957,153.284,8.77274,-7.44193,0.0115324,25,4893,3
101.795,9.6997,57.0642,-26.5077,-20.7439,8.0765,131.149,6.07437,-53.8596,0.0116602,25,4894,3
107.992,7.32776,64.5385,-20.0946,-15.8182,2.06583,142.955,6.59839,-59.5896,0.0116602,25,4895,3
-250.943,0.0629905,-0.0174707,-1.6153,-0.122765,-250.918,-1.61518,-250.909,-250.952,0.00167713,25,4896,3
-68.2531,0.134297,-0.00477877,-1.10911,-0.261589,-68.2463,-0.183942,-68.2445,-69.1802,0.00167713,25,4897,3
-250.86,0.0985192,-0.0420249,-1.61512,-0.191887,-250.8,-1.61482,-250.779,-250.882,0.00266631,25,4898,3
-68.2304,0.209845,-0.0115072,-1.10918,-0.408647,-68.2139,-0.170956,-68.2096,-69.173,0.00266631,25,4899,3
-250.942,0.0670518,-0.0182499,-1.6153,-0.120591,-250.92,-1.61517,-250.909,-250.952,0.00167713,25,4900,3
-68.2528,0.142863,-0.00499199,-1.10911,-0.257007,-68.2466,-0.183943,-68.2445,-69.1802,0.00167713,25,4901,3
-250.857,0.104812,-0.0438983,-1.61512,-0.188528,-250.803,-1.61482,-250.779,-250.882,0.00266631,25,4902,3
-68.2296,0.223193,-0.0120191,-1.10918,-0.401517,-68.2147,-0.170956,-68.2096,-69.173,0.00266631,25,4903,3
68.6269,0.136808,0.00478877,-0.607236,-0.266478,68.6201,68.6294,68.6192,-0.608878,0.000838566,25,4904,3
159.917,0.111275,0.0111711,-0.305328,-0.21677,159.901,159.923,159.896,-0.305738,0.000838566,25,4905,3
68.6042,0.213908,0.0115348,-0.60706,-0.416543,68.5876,68.6101,68.5856,-0.611001,0.00133315,25,4906,3
159.864,0.173912,0.0268549,-0.305221,-0.338682,159.826,159.878,159.813,-0.306201,0.00133315,25,4907,3
68.6266,0.145536,0.00500236,-0.607235,-0.261809,68.6204,68.6294,68.6192,-0.608877,0.000838566,25,4908,3
159.916,0.118388,0.0116691,-0.305329,-0.212964,159.902,159.923,159.896,-0.305739,0.000838566,25,4909,3
68.6034,0.2275,0.0120481,-0.60706,-0.409282,68.5884,68.6101,68.5856,-0.611001,0.00133315,25,4910,3
159.862,0.184982,0.0280505,-0.30522,-0.33277,159.827,159.878,159.813,-0.306201,0.00133315,25,4911,3
228.441,0.0793772,0.0159622,-0.128623,-0.154668,228.418,228.449,228.41,-0.128763,0.000419283,25,4912,3
274.167,0.0513214,0.0191102,-0.0495691,-0.100045,274.14,274.177,274.13,-0.0496204,0.000419283,25,4913,3
228.365,0.124044,0.038281,-0.128872,-0.241589,228.31,228.385,228.291,-0.129207,0.000666576,25,4914,3
274.076,0.0802921,0.0458728,-0.0502438,-0.1564,274.01,274.1,273.987,-0.0503645,0.000666576,25,4915,3
228.44,0.0844742,0.0166746,-0.128623,-0.15194,228.419,228.449,228.41,-0.128764,0.000419283,25,4916,3
274.166,0.0546438,0.0199624,-0.049571,-0.0982658,274.141,274.177,274.13,-0.0496223,0.000419283,25,4917,3
228.363,0.131957,0.0399851,-0.128872,-0.237365,228.313,228.385,228.291,-0.129207,0.000666576,25,4918,3
274.073,0.0854323,0.0479169,-0.0502437,-0.153657,274.013,274.1,273.987,-0.0503645,0.000666576,25,4919,3
308.487,0.0271521,0.0214228,-0.0128831,-0.0529817,308.456,308.498,308.445,-0.0128969,0.000209641,25,4920,3
331.382,0.00934221,0.0228945,-0.00186489,-0.0183146,331.349,331.394,331.338,-0.00186798,0.000209641,25,4921,3
308.384,0.0426042,0.0516712,-0.013774,-0.0830118,308.31,308.411,308.284,-0.0138049,0.000333288,25,4922,3
331.272,0.0145762,0.0553491,-0.00213332,-0.0284348,331.193,331.301,331.165,-0.00213864,0.000333288,25,4923,3
308.486,0.0289425,0.0223836,-0.0128778,-0.0520264,308.458,308.498,308.445,-0.0128915,0.000209641,25,4924,3
331.381,0.010007,0.0239123,-0.00186569,-0.0179646,331.351,331.394,331.338,-0.00186879,0.000209641,25,4925,3
308.381,0.0453489,0.0539718,-0.0137744,-0.0815487,308.314,308.411,308.284,-0.0138053,0.000333288,25,4926,3
331.269,0.0155414,0.0578293,-0.00213514,-0.0279197,331.197,331.301,331.165,-0.00214046,0.000333288,25,4927,3
-250.65,0.154238,-0.104163,-1.61581,-0.300354,-250.501,-1.61507,-250.448,-250.704,0.00830233,25,4928,3
-68.173,0.329455,-0.0285404,-1.10928,-0.641481,-68.1321,-0.140948,-68.121,-69.1523,0.00830233,25,4929,3
-250.256,0.225535,-0.220403,-1.61445,-0.439488,-249.94,-1.61289,-249.828,-250.369,0.0122607,25,4930,3
-68.0652,0.481188,-0.0600766,-1.10793,-0.937309,-67.9792,-0.0848245,-67.9562,-69.1113,0.0122607,25,4931,3
-250.643,0.164045,-0.10883,-1.6158,-0.295112,-250.508,-1.61507,-250.448,-250.704,0.00830233,25,4932,3
-68.1711,0.350336,-0.0298129,-1.10928,-0.63032,-68.134,-0.140948,-68.121,-69.1523,0.00830233,25,4933,3
-250.241,0.24012,-0.230269,-1.61445,-0.431692,-249.955,-1.61289,-249.828,-250.369,0.0122607,25,4934,3
-68.0612,0.51201,-0.0627534,-1.10793,-0.920834,-67.9832,-0.0848245,-67.9562,-69.1113,0.0122607,25,4935,3
68.5464,0.335459,0.0286904,-0.60705,-0.653189,68.5052,68.5611,68.5003,-0.616817,0.00415116,25,4936,3
159.73,0.27269,0.0666276,-0.304829,-0.53097,159.634,159.764,159.603,-0.30726,0.00415116,25,4937,3
68.4384,0.49006,0.0602095,-0.608432,-0.954571,68.3521,68.4693,68.3418,-0.629114,0.00613036,25,4938,3
159.478,0.398905,0.140518,-0.306771,-0.777074,159.277,159.55,159.21,-0.311931,0.00613036,25,4939,3
68.5444,0.356736,0.029971,-0.60705,-0.641816,68.5072,68.5611,68.5003,-0.616817,0.00415116,25,4940,3
159.725,0.289987,0.0696081,-0.304829,-0.521724,159.639,159.764,159.603,-0.30726,0.00415116,25,4941,3
68.4344,0.521434,0.0628962,-0.608432,-0.937802,68.3561,68.4693,68.3418,-0.629114,0.00613036,25,4942,3
159.469,0.424493,0.146793,-0.306771,-0.763397,159.286,159.55,159.21,-0.311931,0.00613036,25,4943,3
228.174,0.194351,0.0949337,-0.128335,-0.378444,228.038,228.223,227.99,-0.129164,0.00207558,25,4944,3
273.847,0.125794,0.113695,-0.0499424,-0.244945,273.684,273.905,273.626,-0.0502405,0.00207558,25,4945,3
227.814,0.284862,0.200999,-0.13139,-0.554984,227.525,227.917,227.424,-0.133158,0.00306518,25,4946,3
273.415,0.18451,0.241376,-0.052608,-0.359544,273.069,273.539,272.945,-0.053245,0.00306518,25,4947,3
228.168,0.206689,0.0991821,-0.128335,-0.371849,228.044,228.223,227.99,-0.129164,0.00207558,25,4948,3
273.839,0.133776,0.118784,-0.0499424,-0.240678,273.691,273.905,273.626,-0.0502405,0.00207558,25,4949,3
227.8,0.303191,0.209973,-0.13139,-0.545187,227.539,227.917,227.424,-0.133158,0.00306518,25,4950,3
273.398,0.196441,0.252159,-0.052608,-0.353167,273.085,273.539,272.945,-0.053245,0.00306518,25,4951,3
308.127,0.0668032,0.127857,-0.0136446,-0.130069,307.943,308.192,307.878,-0.0137203,0.00103779,25,4952,3
330.996,0.0228513,0.136934,-0.000887275,-0.0444974,330.8,331.067,330.729,-0.000899239,0.00103779,25,4953,3
307.642,0.0968714,0.271229,-0.0138718,-0.188871,307.254,307.782,307.114,-0.0140302,0.00153259,25,4954,3
330.481,0.0310595,0.288438,0.00251103,-0.0607663,330.068,330.63,329.92,0.00248759,0.00153259,25,4955,3
308.118,0.0710347,0.133581,-0.0136445,-0.127808,307.952,308.192,307.878,-0.0137202,0.00103779,25,4956,3
330.987,0.0243023,0.143093,-0.000887173,-0.0437219,330.809,331.067,330.729,-0.000899137,0.00103779,25,4957,3
307.624,0.103222,0.283371,-0.0138718,-0.185477,307.272,307.782,307.114,-0.0140302,0.00153259,25,4958,3
330.462,0.0332696,0.30145,0.00251104,-0.0595849,330.087,330.63,329.92,0.00248759,0.00153259,25,4959,3
-249.324,0.337231,-0.495371,-1.61811,-0.65705,-248.614,-1.61457,-248.363,-249.579,0.0363966,25,4960,3
-67.8099,0.719164,-0.135999,-1.10822,-1.40069,-67.615,0.0252236,-67.5627,-68.9956,0.0363966,25,4961,3
-247.63,0.471044,-0.996925,-1.63049,-0.919584,-246.2,-1.62348,-245.695,-248.142,0.0522301,25,4962,3
-67.3357,1.03228,-0.276984,-1.10017,-2.01242,-66.9389,0.21191,-66.8331,-68.7536,0.0522301,25,4963,3
-249.291,0.358962,-0.517644,-1.61811,-0.645435,-248.647,-1.61457,-248.363,-249.579,0.0363966,25,4964,3
-67.8008,0.765088,-0.14206,-1.10822,-1.37615,-67.6241,0.0252236,-67.5627,-68.9956,0.0363966,25,4965,3
-247.562,0.502908,-1.04187,-1.63049,-0.902552,-246.267,-1.62348,-245.695,-248.142,0.0522301,25,4966,3
-67.3173,1.09977,-0.289284,-1.10017,-1.97635,-66.9573,0.21191,-66.8331,-68.7536,0.0522301,25,4967,3
68.1825,0.73154,0.136246,-0.60839,-1.42488,67.9872,68.2525,67.9639,-0.655077,0.0181983,25,4968,3
158.884,0.595748,0.316062,-0.306996,-1.16038,158.431,159.046,158.28,-0.318676,0.0181983,25,4969,3
67.7102,1.04844,0.276281,-0.612844,-2.04399,67.3143,67.8523,67.2683,-0.708879,0.0261151,25,4970,3
157.785,0.853454,0.642393,-0.314018,-1.66411,156.865,158.115,156.559,-0.338091,0.0261151,25,4971,3
68.1734,0.778319,0.142336,-0.60839,-1.39987,67.9963,68.2525,67.9639,-0.655077,0.0181983,25,4972,3
158.862,0.633838,0.330225,-0.306996,-1.14002,158.452,159.046,158.28,-0.318676,0.0181983,25,4973,3
67.6918,1.11703,0.288615,-0.612844,-2.00733,67.3328,67.8523,67.2683,-0.708879,0.0261151,25,4974,3
157.742,0.909506,0.671114,-0.314018,-1.63415,156.908,158.115,156.559,-0.338091,0.0261151,25,4975,3
226.964,0.426496,0.451463,-0.133784,-0.830725,226.317,227.196,226.089,-0.13781,0.00909915,25,4976,3
272.394,0.277198,0.542202,-0.0542558,-0.539953,271.617,272.673,271.34,-0.0557191,0.00909915,25,4977,3
225.401,0.606259,0.917745,-0.132028,-1.18259,224.086,225.873,223.622,-0.140226,0.0130575,25,4978,3
270.537,0.383535,1.09481,-0.0379223,-0.748848,268.968,271.1,268.408,-0.0407428,0.0130575,25,4979,3
226.933,0.453774,0.471686,-0.133784,-0.816144,226.347,227.196,226.089,-0.13781,0.00909915,25,4980,3
272.358,0.294952,0.566518,-0.0542558,-0.530463,271.653,272.673,271.34,-0.0557191,0.00909915,25,4981,3
225.34,0.646467,0.958837,-0.132028,-1.1611,224.147,225.873,223.622,-0.140226,0.0130575,25,4982,3
270.464,0.409564,1.14404,-0.0379223,-0.734936,269.041,271.1,268.408,-0.0407428,0.0130575,25,4983,3
306.495,0.146552,0.60943,-0.0114495,-0.285566,305.621,306.808,305.309,-0.0118172,0.00454957,25,4984,3
329.252,0.0474777,0.651116,0.0132138,-0.0927268,328.318,329.587,327.984,0.013163,0.00454957,25,4985,3
304.431,0.188407,1.21891,0.0191474,-0.368968,302.683,305.057,302.057,0.0185404,0.00652877,25,4986,3
327.062,0.0443141,1.28951,0.0535293,-0.0885921,325.212,327.724,324.55,0.0534256,0.00652877,25,4987,3
306.454,0.156019,0.636845,-0.0114495,-0.280506,305.662,306.808,305.309,-0.0118172,0.00454957,25,4988,3
329.208,0.0507223,0.680606,0.0132138,-0.0909926,328.362,329.587,327.984,0.013163,0.00454957,25,4989,3
304.348,0.202113,1.27406,0.0191474,-0.361643,302.765,305.057,302.057,0.0185404,0.00652877,25,4990,3
326.974,0.0490421,1.34834,0.0535294,-0.086065,325.3,327.724,324.55,0.0534256,0.00652877,25,4991,3
-243.701,0.698426,-2.14651,-1.65033,-1.36236,-240.622,-1.63431,-239.535,-244.803,0.151961,25,4992,3
-66.2572,1.50356,-0.594348,-1.09101,-2.92978,-65.4057,0.536719,-65.1841,-68.1066,0.151961,25,4993,3
-236.704,0.913239,-4.23503,-1.83141,-1.79028,-230.627,-1.8016,-228.482,-238.879,0.215295,25,4994,3
-64.2952,2.18487,-1.20259,-1.15179,-4.26561,-62.5714,1.01366,-62.1477,-66.8844,0.215295,25,4995,3
-243.555,0.744732,-2.24358,-1.65033,-1.3376,-240.767,-1.63431,-239.535,-244.803,0.151961,25,4996,3
-66.2176,1.60069,-0.620815,-1.09101,-2.87786,-65.4453,0.536719,-65.1841,-68.1066,0.151961,25,4997,3
-236.415,0.981198,-4.42789,-1.83141,-1.75396,-230.916,-1.8016,-228.482,-238.879,0.215295,25,4998,3
-64.2145,2.33288,-1.25652,-1.15179,-4.1865,-62.6521,1.01366,-62.1477,-66.8844,0.215295,25,4999,3
66.63,1.52902,0.592577,-0.621816,-2.97946,65.7808,66.9347,65.6886,-0.834277,0.0759804,25,5000,3
155.27,1.2474,1.37916,-0.328569,-2.43094,153.293,155.978,152.638,-0.382616,0.0759804,25,5001,3
64.6726,2.23319,1.1964,-0.554138,-4.35966,62.9572,65.2875,62.8189,-1.03072,0.107648,25,5002,3
150.727,1.77426,2.77232,-0.179819,-3.46618,146.752,152.151,145.443,-0.295239,0.107648,25,5003,3
66.5904,1.62785,0.61909,-0.621816,-2.92663,65.8204,66.9347,65.6886,-0.834277,0.0759804,25,5004,3
155.177,1.32823,1.44098,-0.328569,-2.38774,153.385,155.978,152.638,-0.382616,0.0759804,25,5005,3
64.592,2.38423,1.25025,-0.554138,-4.27893,63.0378,65.2875,62.8189,-1.03072,0.107648,25,5006,3
150.54,1.89629,2.89734,-0.179819,-3.40095,146.939,152.151,145.443,-0.295239,0.107648,25,5007,3
221.815,0.891274,1.9668,-0.140678,-1.73738,218.995,222.825,218.003,-0.159462,0.0379902,25,5008,3
266.243,0.571138,2.35021,-0.0259876,-1.11411,262.873,267.45,261.672,-0.0326347,0.0379902,25,5009,3
215.385,1.20426,3.91727,0.0611439,-2.35653,209.766,217.397,207.79,0.0256068,0.0538238,25,5010,3
258.606,0.709959,4.63427,0.19515,-1.39437,251.957,260.986,249.587,0.184598,0.0538238,25,5011,3
221.682,0.949412,2.05519,-0.140678,-1.7063,219.127,222.825,218.003,-0.159462,0.0379902,25,5012,3
266.084,0.609037,2.45632,-0.0259876,-1.09385,263.032,267.45,261.672,-0.0326347,0.0379902,25,5013,3
215.119,1.29033,4.09459,0.0611439,-2.31052,210.031,217.397,207.79,0.0256068,0.0538238,25,5014,3
258.291,0.764944,4.84513,0.19515,-1.36498,252.272,260.986,249.587,0.184598,0.0538238,25,5015,3
299.608,0.288844,2.62948,0.0572082,-0.564629,295.836,300.959,294.487,0.0557108,0.0189951,25,5016,3
321.888,0.0758038,2.80562,0.1189,-0.150012,317.861,323.328,316.421,0.118675,0.0189951,25,5017,3
291.088,0.29136,5.14542,0.280866,-0.579646,283.703,293.73,281.063,0.278459,0.0269119,25,5018,3
312.793,-0.00943512,5.46288,0.332781,0.00582265,304.949,315.597,302.148,0.330161,0.0269119,25,5019,3
299.43,0.308998,2.7488,0.0572082,-0.553856,296.015,300.959,294.487,0.0557108,0.0189951,25,5020,3
321.696,0.0826159,2.93364,0.1189,-0.146371,318.053,323.328,316.421,0.118675,0.0189951,25,5021,3
290.736,0.320087,5.38068,0.280866,-0.564291,284.055,293.73,281.063,0.278459,0.0269119,25,5022,3
312.417,0.000400521,5.71376,0.332781,0.0110799,305.325,315.597,302.148,0.330161,0.0269119,25,5023,3
-220.359,1.44051,-8.8917,-1.84793,-2.80461,-207.606,-1.7565,-203.13,-224.927,0.620593,25,5024,3
-59.8818,3.05786,-2.44816,-1.14883,-5.9538,-56.3717,1.85108,-55.603,-63.6504,0.620593,25,5025,3
-191.518,2.06756,-17.3315,-1.57028,-4.01426,-166.68,-1.32493,-158.019,-200.425,0.873929,25,5026,3
-52.0704,4.22494,-4.72285,-1.09957,-8.21479,-45.302,3.31703,-44.0323,-57.7567,0.873929,25,5027,3
-219.757,1.53164,-9.29389,-1.84793,-2.7559,-208.208,-1.7565,-203.13,-224.927,0.620593,25,5028,3
-59.7169,3.25155,-2.55835,-1.14883,-5.85027,-56.5366,1.85108,-55.603,-63.6504,0.620593,25,5029,3
-190.359,2.18906,-18.1061,-1.57028,-3.94931,-167.84,-1.32493,-158.019,-200.425,0.873929,25,5030,3
-51.7545,4.4831,-4.93395,-1.09957,-8.0768,-45.6179,3.31703,-44.0323,-57.7567,0.873929,25,5031,3
60.2309,3.11382,2.45243,-0.561027,-6.0627,56.7144,61.5015,56.577,-1.69426,0.310296,25,5032,3
140.365,2.53613,5.70542,-0.190504,-4.93798,132.183,143.296,129.557,-0.495453,0.310296,25,5033,3
52.3806,4.29963,4.74027,-0.617072,-8.36022,45.5872,54.8893,45.5802,-3.11891,0.436965,25,5034,3
122.05,3.52847,11.048,-0.329553,-6.85879,106.217,127.728,101.286,-1.07573,0.436965,25,5035,3
60.0655,3.31101,2.56291,-0.561027,-5.9573,56.8797,61.5015,56.577,-1.69426,0.310296,25,5036,3
139.98,2.69678,5.96267,-0.190504,-4.85212,132.568,143.296,129.557,-0.495453,0.310296,25,5037,3
52.0634,4.56252,4.95216,-0.617072,-8.2197,45.9043,54.8893,45.5802,-3.11891,0.436965,25,5038,3
121.311,3.74256,11.5418,-0.329553,-6.74436,106.956,127.728,101.286,-1.07573,0.436965,25,5039,3
200.554,1.81303,8.12408,0.0540188,-3.53009,188.903,204.727,184.838,-0.054076,0.155148,25,5040,3
240.761,1.1743,9.71308,0.199484,-2.2864,226.83,245.751,221.881,0.159832,0.155148,25,5041,3
174.355,2.56372,15.7783,-0.167575,-4.98039,151.743,182.463,143.916,-0.448808,0.218482,25,5042,3
209.27,1.71215,18.9284,-0.100228,-3.32237,182.143,218.997,172.53,-0.214318,0.218482,25,5043,3
200.005,1.9279,8.4909,0.0540188,-3.46869,189.452,204.727,184.838,-0.054076,0.155148,25,5044,3
240.104,1.24866,10.1524,0.199484,-2.24665,227.488,245.751,221.881,0.159832,0.155148,25,5045,3
173.3,2.71672,16.4835,-0.167575,-4.89861,152.798,182.463,143.916,-0.448808,0.218482,25,5046,3
208.004,1.81123,19.7744,-0.100228,-3.26941,183.409,218.997,172.53,-0.214318,0.218482,25,5047,3
270.963,0.619698,10.8925,0.298733,-1.20647,255.339,276.558,249.754,0.288463,0.0775741,25,5048,3
291.13,0.20826,11.6687,0.363304,-0.405315,274.391,297.123,268.4,0.361281,0.0775741,25,5049,3
235.485,0.972886,21.2873,-0.0712697,-1.88314,204.978,246.424,194.075,-0.107996,0.109241,25,5050,3
252.983,0.424396,22.8554,-0.0626074,-0.815543,220.229,264.729,208.494,-0.0720732,0.109241,25,5051,3
270.225,0.658855,11.3859,0.298733,-1.18554,256.077,276.558,249.754,0.288463,0.0775741,25,5052,3
290.338,0.221304,12.1977,0.363304,-0.398343,275.183,297.123,268.4,0.361281,0.0775741,25,5053,3
234.061,1.02527,22.2387,-0.0712697,-1.85514,206.402,246.424,194.075,-0.107996,0.109241,25,5054,3
251.455,0.442318,23.8769,-0.0626074,-0.805964,221.758,264.729,208.494,-0.0720732,0.109241,25,5055,3
-164.712,2.36836,-25.3714,-1.41578,-4.62128,-128.357,-1.02598,-115.708,-177.751,0.531966,25,5056,3
-44.8092,5.24461,-6.87746,-1.05601,-10.22,-34.9536,4.93065,-33.4871,-52.2624,0.531966,25,5057,3
-143.131,2.73394,-31.7712,-1.57626,-5.3202,-97.5981,-0.853127,-81.9947,-159.458,0.5953,25,5058,3
-38.9109,5.78546,-8.64424,-1.1217,-11.2604,-26.5217,6.4507,-25.3872,-47.6177,0.5953,25,5059,3
-163.019,2.52667,-26.503,-1.41578,-4.53666,-130.051,-1.02598,-115.708,-177.751,0.531966,25,5060,3
-44.3495,5.58391,-7.18461,-1.05601,-10.0387,-35.4132,4.93065,-33.4871,-52.2624,0.531966,25,5061,3
-141.005,2.90469,-33.1919,-1.57626,-5.22893,-99.7243,-0.853127,-81.9947,-159.458,0.5953,25,5062,3
-38.3319,6.14847,-9.03107,-1.1217,-11.0664,-27.1006,6.4507,-25.3872,-47.6177,0.5953,25,5063,3
45.0844,5.35115,6.9081,-0.667099,-10.4275,35.1851,48.6346,35.8873,-4.91951,0.265983,25,5064,3
105.029,4.31319,16.1157,-0.440408,-8.40689,81.9354,113.311,74.9484,-1.73549,0.265983,25,5065,3
39.1688,5.89288,8.67804,-0.600064,-11.4696,26.7313,43.6282,28.485,-6.81318,0.29765,25,5066,3
91.2491,4.80271,20.2305,-0.295367,-9.34717,62.2547,101.645,54.0819,-2.51844,0.29765,25,5067,3
44.6228,5.69718,7.21654,-0.667099,-10.2425,35.6467,48.6346,35.8873,-4.91951,0.265983,25,5068,3
103.952,4.5938,16.8351,-0.440408,-8.2569,83.012,113.311,74.9484,-1.73549,0.265983,25,5069,3
38.5877,6.26271,9.06631,-0.600064,-11.2719,27.3124,43.6282,28.485,-6.81318,0.29765,25,5070,3
89.8946,5.10364,21.1356,-0.295367,-9.18632,63.6092,101.645,54.0819,-2.51844,0.29765,25,5071,3
150.008,3.02358,23.0509,-0.31911,-5.89659,116.977,161.854,105.572,-0.761153,0.132991,25,5072,3
180,1.90099,27.704,-0.275319,-3.71155,140.303,194.238,126.218,-0.428484,0.132991,25,5073,3
130.352,3.4396,28.9002,-0.13243,-6.69349,88.9328,145.203,74.8942,-0.944825,0.148825,25,5074,3
156.445,2.2382,34.6883,-0.0854123,-4.35494,106.731,174.271,89.2078,-0.387566,0.148825,25,5075,3
148.468,3.22302,24.0795,-0.31911,-5.78999,118.516,161.854,105.572,-0.761153,0.132991,25,5076,3
178.151,2.02991,28.9397,-0.275319,-3.64265,142.152,194.238,126.218,-0.428484,0.132991,25,5077,3
128.418,3.65449,30.1929,-0.13243,-6.57863,90.8675,145.203,74.8942,-0.944825,0.148825,25,5078,3
154.124,2.37752,36.2396,-0.0854123,-4.28047,109.053,174.271,89.2078,-0.387566,0.148825,25,5079,3
202.505,0.943564,31.2064,-0.262915,-1.84823,157.79,218.543,141.787,-0.298264,0.0664957,25,5080,3
217.515,0.248254,33.5484,-0.266031,-0.495265,169.444,234.756,152.209,-0.272065,0.0664957,25,5081,3
176.029,1.19758,39.0347,-0.0867472,-2.32967,120.086,196.088,100.107,-0.166436,0.0744125,25,5082,3
189.09,0.426691,41.9363,-0.112946,-0.829727,128.99,210.64,107.453,-0.12588,0.0744125,25,5083,3
200.422,1.01253,32.5979,-0.262915,-1.81137,159.872,218.543,141.787,-0.298264,0.0664957,25,5084,3
215.276,0.273875,35.044,-0.266031,-0.481571,171.683,234.756,152.209,-0.272065,0.0664957,25,5085,3
173.417,1.27171,40.7799,-0.0867472,-2.29005,122.698,196.088,100.107,-0.166436,0.0744125,25,5086,3
186.284,0.452836,43.8109,-0.112946,-0.815753,131.796,210.64,107.453,-0.12588,0.0744125,25,5087,3
-125.564,2.90733,-36.9697,-1.54698,-5.6672,-72.5814,-0.359558,-54.7708,-144.562,0.3214,25,5088,3
-34.1307,6.28776,-10.0491,-1.0902,-12.2478,-19.728,8.43275,-19.497,-43.8846,0.3214,25,5089,3
-112.892,3.12861,-40.7382,-1.57184,-6.09057,-54.5061,0.482249,-35.6261,-133.826,0.337234,25,5090,3
-30.7021,6.59799,-11.0303,-0.96696,-12.8444,-14.8933,10.3562,-15.778,-41.1406,0.337234,25,5091,3
-123.091,3.09688,-38.6227,-1.54698,-5.56588,-75.0552,-0.359558,-54.7708,-144.562,0.3214,25,5092,3
-33.4577,6.69039,-10.4988,-1.0902,-12.0326,-20.401,8.43275,-19.497,-43.8846,0.3214,25,5093,3
-110.165,3.32596,-42.5608,-1.57184,-5.98509,-57.2338,0.482249,-35.6261,-133.826,0.337234,25,5094,3
-29.9635,7.01408,-11.5238,-0.96696,-12.622,-15.632,10.3562,-15.778,-41.1406,0.337234,25,5095,3
34.3773,6.40049,10.0916,-0.602168,-12.4674,19.914,39.5631,23.2742,-9.14808,0.1607,25,5096,3
80.0748,5.1947,23.5241,-0.324174,-10.1196,46.36,92.1631,37.8487,-3.9012,0.1607,25,5097,3
30.8764,6.65384,11.1864,-0.440971,-12.9533,14.8438,36.6307,19.778,-11.1295,0.168617,25,5098,3
72.005,5.37621,25.9547,-0.184687,-10.4658,34.8063,85.3423,26.8294,-5.54508,0.168617,25,5099,3
33.7016,6.81031,10.5431,-0.602168,-12.2483,20.5897,39.5631,23.2742,-9.14808,0.1607,25,5100,3
78.4998,5.52813,24.5765,-0.324174,-9.94139,47.935,92.1631,37.8487,-3.9012,0.1607,25,5101,3
30.1273,7.07361,11.6869,-0.440971,-12.7289,15.5929,36.6307,19.778,-11.1295,0.168617,25,5102,3
70.2671,5.71513,27.116,-0.184687,-10.2846,36.5443,85.3423,26.8294,-5.54508,0.168617,25,5103,3
114.386,3.68521,33.6097,-0.177743,-7.18085,66.2173,131.657,50.2832,-1.51472,0.0803501,25,5104,3
137.27,2.35378,40.3579,-0.12683,-4.58926,79.4304,158.009,59.1712,-0.606675,0.0803501,25,5105,3
102.92,3.82095,37.0179,-0.0594784,-7.438,49.8651,121.942,33.0485,-2.26519,0.0843085,25,5106,3
123.568,2.47006,44.3953,-0.0218075,-4.80834,59.9398,146.381,37.9567,-0.852026,0.0843085,25,5107,3
112.136,3.92327,35.113,-0.177743,-7.0536,68.4671,131.657,50.2832,-1.51472,0.0803501,25,5108,3
134.569,2.50814,42.1625,-0.12683,-4.50675,82.1312,158.009,59.1712,-0.606675,0.0803501,25,5109,3
100.441,4.06167,38.6741,-0.0594784,-7.30934,52.3439,121.942,33.0485,-2.26519,0.0843085,25,5110,3
120.595,2.6257,46.3815,-0.0218075,-4.72515,62.9125,146.381,37.9567,-0.852026,0.0843085,25,5111,3
154.431,1.20685,45.4385,-0.114366,-2.35731,89.3121,177.781,66.0765,-0.22894,0.040175,25,5112,3
165.861,0.370365,48.8443,-0.123901,-0.729666,95.8627,190.962,70.7779,-0.139739,0.040175,25,5113,3
139.067,1.30779,49.9367,-0.0182073,-2.54595,67.4972,164.727,42.0476,-0.229328,0.0421542,25,5114,3
149.394,0.451095,53.6418,-0.0443346,-0.879305,72.5151,176.959,44.9811,-0.075129,0.0421542,25,5115,3
151.391,1.28955,47.4696,-0.114366,-2.31311,92.3519,177.781,66.0765,-0.22894,0.040175,25,5116,3
162.595,0.400931,51.027,-0.123901,-0.713328,99.1293,190.962,70.7779,-0.139739,0.040175,25,5117,3
135.723,1.39032,52.1707,-0.0182073,-2.50184,70.8407,164.727,42.0476,-0.229328,0.0421542,25,5118,3
145.803,0.4805,56.0414,-0.0443346,-0.863588,76.1064,176.959,44.9811,-0.075129,0.0421542,25,5119,3
-102.931,3.29795,-43.7486,-1.59538,-6.42249,-40.2301,1.87701,-21.2214,-125.412,0.174555,25,5120,3
-28.2174,6.89778,-11.7275,-1.12098,-13.4303,-11.4094,12.1169,-13.63,-39.2347,0.174555,25,5121,3
-96.1848,3.18471,-45.8099,-1.96392,-6.20121,-30.5298,3.33661,-12.29,-119.725,0.178513,25,5122,3
-26.7006,6.85024,-12.4613,-2.8317,-13.3371,-8.84131,12.4143,-12.4406,-38.3473,0.178513,25,5123,3
-100.002,3.50786,-45.7058,-1.59538,-6.31029,-43.1591,1.87701,-21.2214,-125.412,0.174555,25,5124,3
-27.4321,7.33465,-12.2522,-1.12098,-13.1967,-12.1947,12.1169,-13.63,-39.2347,0.174555,25,5125,3
-93.1175,3.38679,-47.8594,-1.96392,-6.0932,-33.597,3.33661,-12.29,-119.725,0.178513,25,5126,3
-25.8664,7.28361,-13.0186,-2.8317,-13.1055,-9.67546,12.4143,-12.4406,-38.3473,0.178513,25,5127,3
27.9484,6.88525,12.1252,-0.542244,-13.4064,10.57,34.1849,17.1995,-13.4082,0.0872773,25,5128,3
65.6338,5.4789,27.8879,-0.178736,-10.6683,25.6638,79.9641,18.9896,-7.83476,0.0872773,25,5129,3
25.5979,7.25984,12.4635,-2.82494,-14.137,7.73262,32.0154,15.2756,-16.7854,0.0892564,25,5130,3
60.7129,6.01297,29.194,-1.82403,-11.7115,18.8667,75.7153,14.5171,-12.4769,0.0892564,25,5131,3
27.1362,7.32179,12.6679,-0.542244,-13.1731,11.3822,34.1849,17.1995,-13.4082,0.0872773,25,5132,3
63.7659,5.82648,29.136,-0.178736,-10.4825,27.5317,79.9641,18.9896,-7.83476,0.0872773,25,5133,3
24.7617,7.72115,13.0223,-2.82494,-13.8904,8.56882,32.0154,15.2756,-16.7854,0.0892564,25,5134,3
58.7546,6.39709,30.5025,-1.82403,-11.5061,20.825,75.7153,14.5171,-12.4769,0.0892564,25,5135,3
94.0658,3.81884,39.6128,-0.0263066,-7.43596,37.2914,114.421,20.4409,-3.531,0.0436386,25,5136,3
113.094,2.42209,47.3963,-0.00575912,-4.71717,45.1648,137.45,22.1539,-1.35048,0.0436386,25,5137,3
87.4666,4.17592,41.5798,-0.751755,-8.13481,27.867,108.833,12.8367,-7.08792,0.0446282,25,5138,3
105.701,2.54594,49.5489,-0.216219,-4.95905,34.6814,131.16,12.0327,-3.02718,0.0446282,25,5139,3
91.4128,4.06115,41.3855,-0.0263066,-7.30645,39.9444,114.421,20.4409,-3.531,0.0436386,25,5140,3
109.92,2.57654,49.5169,-0.00575912,-4.63461,48.3386,137.45,22.1539,-1.35048,0.0436386,25,5141,3
84.6777,4.44383,43.4433,-0.751755,-7.99161,30.656,108.833,12.8367,-7.08792,0.0446282,25,5142,3
102.379,2.70885,51.7682,-0.216219,-4.87198,38.0027,131.16,12.0327,-3.02718,0.0446282,25,5143,3
127.388,1.24818,53.2361,-0.00604522,-2.43369,51.0892,154.746,24.0637,-0.338228,0.0218193,25,5144,3
136.888,0.416209,57.1555,-0.0522838,-0.813083,54.9739,166.259,25.6558,-0.105037,0.0218193,25,5145,3
119.597,1.23018,55.3497,0.032471,-2.39495,40.2696,148.037,12.4942,-0.631831,0.0223141,25,5146,3
128.838,0.413027,59.1567,-0.138171,-0.809714,44.0582,159.24,13.8722,-0.353987,0.0223141,25,5147,3
123.823,1.33009,55.6179,-0.00604522,-2.38991,54.6538,154.746,24.0637,-0.338228,0.0218193,25,5148,3
133.062,0.444821,59.712,-0.0522838,-0.79779,58.8,166.259,25.6558,-0.105037,0.0218193,25,5149,3
115.891,1.30787,57.8261,0.032471,-2.35342,43.9759,148.037,12.4942,-0.631831,0.0223141,25,5150,3
124.88,0.443787,61.8016,-0.138171,-0.793272,48.0165,159.24,13.8722,-0.353987,0.0223141,25,5151,3
-91.4392,2.6906,-47.1213,-2.4416,-5.23777,-23.9245,5.09622,-7.24401,-115.657,0.0922591,25,5152,3
-25.5746,6.01635,-13.3954,-5.81057,-11.7133,-6.38121,10.9194,-11.0503,-37.6354,0.0922591,25,5153,3
-88.6674,2.09002,-47.5785,-2.38451,-4.06804,-20.4982,6.59699,-5.02629,-113.121,0.0932817,25,5154,3
-24.7935,4.51355,-13.9488,-7.54231,-8.78436,-4.80739,8.50696,-9.22007,-36.4301,0.0932817,25,5155,3
-88.2979,2.86023,-49.2203,-2.4416,-5.1471,-27.0658,5.09622,-7.24401,-115.657,0.0922591,25,5156,3
-24.6811,6.39677,-13.9924,-5.81057,-11.51,-7.27468,10.9194,-11.0503,-37.6354,0.0922591,25,5157,3
-85.496,2.2213,-49.6976,-2.38451,-3.99787,-23.6696,6.59699,-5.02629,-113.121,0.0932817,25,5158,3
-23.8633,4.79633,-14.5704,-7.54231,-8.63321,-5.73762,8.50696,-9.22007,-36.4301,0.0932817,25,5159,3
23.8286,7.2084,11.6703,-8.80299,-14.0357,7.11077,29.8303,12.7352,-20.429,0.0461296,25,5160,3
56.4169,7.26297,29.1606,-8.82122,-14.1475,14.6418,71.4186,11.9179,-21.0991,0.0461296,25,5161,3
23.1103,5.35158,10.3712,-14.6672,-10.4097,8.25317,28.4479,8.89482,-20.6464,0.0466408,25,5162,3
54.0356,6.23806,26.7533,-21.789,-12.1121,15.7165,67.8596,8.50862,-28.405,0.0466408,25,5163,3
23.0528,7.66548,12.1887,-8.80299,-13.7914,7.88659,29.8303,12.7352,-20.429,0.0461296,25,5164,3
54.4769,7.72813,30.4568,-8.82122,-13.8989,16.5818,71.4186,11.9179,-21.0991,0.0461296,25,5165,3
22.4206,5.68218,10.832,-14.6672,-10.233,8.94281,28.4479,8.89482,-20.6464,0.0466408,25,5166,3
52.2608,6.60516,27.9392,-21.789,-11.9159,17.4913,67.8596,8.50862,-28.405,0.0466408,25,5167,3
80.9949,6.21903,42.9252,-6.07199,-12.1252,19.4986,103.091,9.46139,-18.1307,0.0230648,25,5168,3
98.2394,4.09989,51.9393,-2.59873,-8.0105,23.8249,124.984,6.58933,-12.1073,0.0230648,25,5169,3
75.8307,7.81176,39.9654,-27.7074,-15.1346,18.5978,96.6849,7.30294,-37.2668,0.0233204,25,5170,3
89.1598,9.64296,50.2584,-29.4679,-18.6329,17.1862,116.044,5.96275,-45.1288,0.0233204,25,5171,3
78.1377,6.62659,44.8344,-6.07199,-11.9073,22.3559,103.091,9.46139,-18.1307,0.0230648,25,5172,3
94.7792,4.38271,54.2513,-2.59873,-7.85933,27.2851,124.984,6.58933,-12.1073,0.0230648,25,5173,3
73.1864,8.244,41.7323,-27.7074,-14.9036,21.242,96.6849,7.30294,-37.2668,0.0233204,25,5174,3
85.8341,10.1354,52.4805,-29.4679,-18.3697,20.5119,116.044,5.96275,-45.1288,0.0233204,25,5175,3
112.525,1.7812,57.5801,-0.676695,-3.5051,30.0157,142.169,5.59575,-5.90138,0.0115324,25,5176,3
121.827,0.933393,61.0127,-1.61754,-1.84408,34.406,153.284,8.77274,-7.44193,0.0115324,25,5177,3
97.9275,10.5524,60.032,-26.5077,-20.3234,11.9442,131.149,6.07437,-53.8596,0.0116602,25,5178,3
103.661,8.08853,67.8624,-20.0946,-15.443,6.3976,142.955,6.59839,-59.5896,0.0116602,25,5179,3
108.68,1.92481,60.1492,-0.676695,-3.42834,33.8605,142.169,5.59575,-5.90138,0.0115324,25,5180,3
117.758,1.01473,63.7317,-1.61754,-1.8006,38.4752,153.284,8.77274,-7.44193,0.0115324,25,5181,3
93.946,11.0356,62.6923,-26.5077,-20.0651,15.9258,131.149,6.07437,-53.8596,0.0116602,25,5182,3
99.1153,8.34663,70.8995,-20.0946,-15.305,10.9429,142.955,6.59839,-59.5896,0.0116602,25,5183,3
-250.949,0.0378577,-0.0113531,-1.6153,-0.132683,-250.913,-1.61517,-250.909,-250.952,0.00167713,25,5184,3
-68.2547,0.0807119,-0.00310367,-1.10911,-0.282751,-68.2447,-0.183943,-68.2445,-69.1802,0.00167713,25,5185,3
-250.874,0.0591962,-0.0273045,-1.61512,-0.207423,-250.786,-1.61482,-250.779,-250.882,0.00266631,25,5186,3
-68.2342,0.126094,-0.00747699,-1.10918,-0.441736,-68.2102,-0.170956,-68.2096,-69.173,0.00266631,25,5187,3
-250.948,0.0422668,-0.0125206,-1.6153,-0.131349,-250.913,-1.61518,-250.909,-250.952,0.00167713,25,5188,3
-68.2545,0.090009,-0.00342204,-1.10911,-0.279933,-68.2449,-0.183942,-68.2445,-69.1802,0.00167713,25,5189,3
-250.872,0.0660211,-0.0301074,-1.61512,-0.205348,-250.788,-1.61482,-250.779,-250.882,0.00266631,25,5190,3
-68.2337,0.140575,-0.00824338,-1.10918,-0.43734,-68.2107,-0.170956,-68.2096,-69.173,0.00266631,25,5191,3
68.6285,0.0822176,0.00311133,-0.607235,-0.288037,68.6185,68.6294,68.6192,-0.608877,0.000838566,25,5192,3
159.921,0.0668759,0.00725855,-0.305329,-0.234301,159.897,159.923,159.896,-0.305739,0.000838566,25,5193,3
68.6079,0.12854,0.0074947,-0.60706,-0.450273,68.5838,68.6101,68.5856,-0.611001,0.00133315,25,5194,3
159.873,0.104502,0.0174487,-0.30522,-0.366106,159.817,159.878,159.813,-0.306201,0.00133315,25,5195,3
68.6283,0.0916908,0.00343084,-0.607236,-0.285167,68.6187,68.6294,68.6192,-0.608878,0.000838566,25,5196,3
159.92,0.0745959,0.00800402,-0.305328,-0.231963,159.898,159.923,159.896,-0.305738,0.000838566,25,5197,3
68.6074,0.143285,0.008263,-0.60706,-0.445796,68.5844,68.6101,68.5856,-0.611001,0.00133315,25,5198,3
159.872,0.11651,0.019238,-0.305221,-0.362459,159.818,159.878,159.813,-0.306201,0.00133315,25,5199,3
228.446,0.0477052,0.0103711,-0.128623,-0.16717,228.413,228.449,228.41,-0.128764,0.000419283,25,5200,3
274.173,0.0308455,0.012417,-0.049571,-0.108123,274.133,274.177,274.13,-0.0496223,0.000419283,25,5201,3
228.378,0.0745344,0.0248727,-0.128872,-0.26115,228.298,228.385,228.291,-0.129207,0.000666576,25,5202,3
274.091,0.0482422,0.0298049,-0.0502437,-0.169062,273.995,274.1,273.987,-0.0503645,0.000666576,25,5203,3
228.445,0.0532384,0.0114369,-0.128623,-0.165495,228.413,228.449,228.41,-0.128763,0.000419283,25,5204,3
274.172,0.0344531,0.0136936,-0.0495691,-0.107033,274.134,274.177,274.13,-0.0496204,0.000419283,25,5205,3
228.376,0.0831169,0.0274233,-0.128872,-0.258542,228.299,228.385,228.291,-0.129207,0.000666576,25,5206,3
274.089,0.0538162,0.0328636,-0.0502438,-0.167366,273.997,274.1,273.987,-0.0503645,0.000666576,25,5207,3
308.494,0.0163228,0.0139125,-0.0128778,-0.0572537,308.449,308.498,308.445,-0.0128915,0.000209641,25,5208,3
331.39,0.00562688,0.0148839,-0.00186569,-0.0197789,331.342,331.394,331.338,-0.00186879,0.000209641,25,5209,3
308.401,0.0255971,0.0335725,-0.0137744,-0.0897301,308.293,308.411,308.284,-0.0138053,0.000333288,25,5210,3
331.291,0.00875272,0.0359591,-0.00213514,-0.0307316,331.175,331.301,331.165,-0.00214046,0.000333288,25,5211,3
308.493,0.0182642,0.015343,-0.0128831,-0.0566632,308.45,308.498,308.445,-0.0128969,0.000209641,25,5212,3
331.389,0.00634441,0.016418,-0.00186489,-0.0195563,331.343,331.394,331.338,-0.00186798,0.000209641,25,5213,3
308.399,0.0285725,0.0370183,-0.013774,-0.0888239,308.296,308.411,308.284,-0.0138049,0.000333288,25,5214,3
331.288,0.00979952,0.0396645,-0.00213332,-0.0304134,331.177,331.301,331.165,-0.00213864,0.000333288,25,5215,3
-250.684,0.0926786,-0.0676665,-1.6158,-0.324673,-250.467,-1.61507,-250.448,-250.704,0.00830233,25,5216,3
-68.1823,0.197979,-0.018543,-1.10928,-0.693428,-68.1227,-0.140948,-68.121,-69.1523,0.00830233,25,5217,3
-250.328,0.135462,-0.143182,-1.61445,-0.475043,-249.868,-1.61289,-249.828,-250.369,0.0122607,25,5218,3
-68.085,0.289082,-0.0390331,-1.10793,-1.01317,-67.9595,-0.0848245,-67.9562,-69.1113,0.0122607,25,5219,3
-250.68,0.103319,-0.0746514,-1.61581,-0.321445,-250.471,-1.61507,-250.448,-250.704,0.00830233,25,5220,3
-68.1811,0.220635,-0.0204474,-1.10928,-0.686556,-68.124,-0.140948,-68.121,-69.1523,0.00830233,25,5221,3
-250.318,0.151287,-0.157947,-1.61445,-0.470242,-249.878,-1.61289,-249.828,-250.369,0.0122607,25,5222,3
-68.0823,0.322526,-0.0430393,-1.10793,-1.00303,-67.9621,-0.0848245,-67.9562,-69.1113,0.0122607,25,5223,3
68.5558,0.201582,0.0186398,-0.60705,-0.706083,68.4958,68.5611,68.5003,-0.616817,0.00415116,25,5224,3
159.752,0.163863,0.0432846,-0.304829,-0.573967,159.613,159.764,159.603,-0.30726,0.00415116,25,5225,3
68.4581,0.294416,0.0391179,-0.608432,-1.03184,68.3323,68.4693,68.3418,-0.629114,0.00613036,25,5226,3
159.524,0.239641,0.0912918,-0.306771,-0.839965,159.231,159.55,159.21,-0.311931,0.00613036,25,5227,3
68.5545,0.22467,0.0205565,-0.60705,-0.69908,68.4971,68.5611,68.5003,-0.616817,0.00415116,25,5228,3
159.749,0.182632,0.0477452,-0.304829,-0.568273,159.616,159.764,159.603,-0.30726,0.00415116,25,5229,3
68.4554,0.328459,0.0431388,-0.608432,-1.02151,68.335,68.4693,68.3418,-0.629114,0.00613036,25,5230,3
159.518,0.267405,0.100683,-0.306771,-0.831543,159.237,159.55,159.21,-0.311931,0.00613036,25,5231,3
228.205,0.116786,0.0616729,-0.128335,-0.409088,228.007,228.223,227.99,-0.129164,0.00207558,25,5232,3
273.884,0.0755908,0.073861,-0.0499424,-0.264779,273.647,273.905,273.626,-0.0502405,0.00207558,25,5233,3
227.879,0.171117,0.130587,-0.13139,-0.599894,227.46,227.917,227.424,-0.133158,0.00306518,25,5234,3
273.494,0.110822,0.156816,-0.052608,-0.388631,272.989,273.539,272.945,-0.053245,0.00306518,25,5235,3
228.201,0.130174,0.0680311,-0.128335,-0.405027,228.011,228.223,227.99,-0.129164,0.00207558,25,5236,3
273.879,0.0842524,0.0814764,-0.0499424,-0.262152,273.652,273.905,273.626,-0.0502405,0.00207558,25,5237,3
227.871,0.191005,0.144017,-0.13139,-0.593861,227.469,227.917,227.424,-0.133158,0.00306518,25,5238,3
273.483,0.123767,0.172953,-0.052608,-0.384704,273,273.539,272.945,-0.053245,0.00306518,25,5239,3
308.169,0.0401445,0.0830606,-0.0136445,-0.140603,307.901,308.192,307.878,-0.0137202,0.00103779,25,5240,3
331.041,0.0137318,0.0889449,-0.000887173,-0.0481004,330.755,331.067,330.729,-0.000899137,0.00103779,25,5241,3
307.731,0.0581632,0.1762,-0.0138718,-0.204141,307.165,307.782,307.114,-0.0140302,0.00153259,25,5242,3
330.576,0.0186078,0.187339,0.00251104,-0.0656581,329.973,330.63,329.92,0.00248759,0.00153259,25,5243,3
308.163,0.044736,0.0916266,-0.0136446,-0.13921,307.907,308.192,307.878,-0.0137203,0.00103779,25,5244,3
331.035,0.0153061,0.0981636,-0.000887275,-0.0476227,330.761,331.067,330.729,-0.000899239,0.00103779,25,5245,3
307.719,0.0650537,0.194372,-0.0138718,-0.202051,307.177,307.782,307.114,-0.0140302,0.00153259,25,5246,3
330.563,0.0210059,0.206812,0.00251103,-0.0649306,329.986,330.63,329.92,0.00248759,0.00153259,25,5247,3
-249.487,0.202567,-0.32177,-1.61811,-0.710216,-248.451,-1.61457,-248.363,-249.579,0.0363966,25,5248,3
-67.8545,0.432084,-0.0883614,-1.10822,-1.51408,-67.5704,0.0252236,-67.5627,-68.9956,0.0363966,25,5249,3
-247.957,0.282591,-0.647505,-1.63049,-0.993811,-245.873,-1.62348,-245.695,-248.142,0.0522301,25,5250,3
-67.4266,0.619838,-0.17998,-1.10017,-2.17514,-66.848,0.21191,-66.8331,-68.7536,0.0522301,25,5251,3
-249.464,0.226146,-0.355105,-1.61811,-0.703063,-248.474,-1.61457,-248.363,-249.579,0.0363966,25,5252,3
-67.8484,0.481914,-0.0974315,-1.10822,-1.49897,-67.5764,0.0252236,-67.5627,-68.9956,0.0363966,25,5253,3
-247.912,0.317166,-0.714777,-1.63049,-0.983322,-245.918,-1.62348,-245.695,-248.142,0.0522301,25,5254,3
-67.4143,0.693068,-0.198388,-1.10017,-2.15293,-66.8603,0.21191,-66.8331,-68.7536,0.0522301,25,5255,3
68.2272,0.439504,0.0885145,-0.60839,-1.54021,67.9425,68.2525,67.9639,-0.655077,0.0181983,25,5256,3
158.987,0.357922,0.205319,-0.306996,-1.2543,158.327,159.046,158.28,-0.318676,0.0181983,25,5257,3
67.8009,0.629536,0.179497,-0.612844,-2.20925,67.2237,67.8523,67.2683,-0.708879,0.0261151,25,5258,3
157.996,0.512403,0.417337,-0.314018,-1.79864,156.654,158.115,156.559,-0.338091,0.0261151,25,5259,3
68.2211,0.490263,0.0976286,-0.60839,-1.52482,67.9486,68.2525,67.9639,-0.655077,0.0181983,25,5260,3
158.973,0.399253,0.226516,-0.306996,-1.24177,158.341,159.046,158.28,-0.318676,0.0181983,25,5261,3
67.7886,0.703956,0.197955,-0.612844,-2.18668,67.236,67.8523,67.2683,-0.708879,0.0261151,25,5262,3
157.967,0.573223,0.46032,-0.314018,-1.78019,156.683,158.115,156.559,-0.338091,0.0261151,25,5263,3
227.112,0.256234,0.293281,-0.133784,-0.897968,226.168,227.196,226.089,-0.13781,0.00909915,25,5264,3
272.572,0.166532,0.352216,-0.0542558,-0.583657,271.439,272.673,271.34,-0.0557191,0.00909915,25,5265,3
225.702,0.363898,0.596197,-0.132028,-1.27814,223.785,225.873,223.622,-0.140226,0.0130575,25,5266,3
270.897,0.230073,0.711141,-0.0379223,-0.809283,268.609,271.1,268.408,-0.0407428,0.0130575,25,5267,3
227.092,0.285833,0.323547,-0.133784,-0.888989,226.189,227.196,226.089,-0.13781,0.00909915,25,5268,3
272.548,0.185796,0.388607,-0.0542558,-0.577813,271.463,272.673,271.34,-0.0557191,0.00909915,25,5269,3
225.661,0.407527,0.657695,-0.132028,-1.26491,223.826,225.873,223.622,-0.140226,0.0130575,25,5270,3
270.847,0.258315,0.784815,-0.0379223,-0.800716,268.658,271.1,268.408,-0.0407428,0.0130575,25,5271,3
306.695,0.0880253,0.395853,-0.0114495,-0.30867,305.421,306.808,305.309,-0.0118172,0.00454957,25,5272,3
329.466,0.0284754,0.422847,0.0132138,-0.100208,328.105,329.587,327.984,0.013163,0.00454957,25,5273,3
304.831,0.112805,0.791612,0.0191474,-0.398635,302.283,305.057,302.057,0.0185404,0.00652877,25,5274,3
327.485,0.0261792,0.83725,0.0535294,-0.0955351,324.789,327.724,324.55,0.0534256,0.00652877,25,5275,3
306.668,0.0982974,0.436881,-0.0114495,-0.305554,305.449,306.808,305.309,-0.0118172,0.00454957,25,5276,3
329.436,0.0319959,0.466982,0.0132138,-0.0991396,328.134,329.587,327.984,0.013163,0.00454957,25,5277,3
304.776,0.127676,0.874139,0.0191474,-0.394124,302.338,305.057,302.057,0.0185404,0.00652877,25,5278,3
327.426,0.0313093,0.925306,0.0535293,-0.0939789,324.847,327.724,324.55,0.0534256,0.00652877,25,5279,3
-244.405,0.419224,-1.39404,-1.65033,-1.47243,-239.918,-1.63431,-239.535,-244.803,0.151961,25,5280,3
-66.4523,0.903093,-0.386168,-1.09101,-3.16682,-65.2106,0.536719,-65.1841,-68.1066,0.151961,25,5281,3
-238.093,0.546425,-2.74987,-1.83141,-1.93405,-229.237,-1.8016,-228.482,-238.879,0.215295,25,5282,3
-64.6898,1.31071,-0.781207,-1.15179,-4.6099,-62.1768,1.01366,-62.1477,-66.8844,0.215295,25,5283,3
-244.308,0.469469,-1.53932,-1.65033,-1.45719,-240.015,-1.63431,-239.535,-244.803,0.151961,25,5284,3
-66.4258,1.00849,-0.425778,-1.09101,-3.13484,-65.2371,0.536719,-65.1841,-68.1066,0.151961,25,5285,3
-237.9,0.620164,-3.0385,-1.83141,-1.91168,-229.43,-1.8016,-228.482,-238.879,0.215295,25,5286,3
-64.6359,1.47131,-0.861916,-1.15179,-4.56118,-62.2307,1.01366,-62.1477,-66.8844,0.215295,25,5287,3
66.8245,0.918373,0.384965,-0.621816,-3.22051,65.5863,66.9347,65.6886,-0.834277,0.0759804,25,5288,3
155.722,0.749182,0.895915,-0.328569,-2.62759,152.84,155.978,152.638,-0.382616,0.0759804,25,5289,3
65.0652,1.33976,0.777107,-0.554138,-4.71156,62.5647,65.2875,62.8189,-1.03072,0.107648,25,5290,3
151.637,1.06395,1.80062,-0.179819,-3.74572,145.842,152.151,145.443,-0.295239,0.107648,25,5291,3
66.798,1.02562,0.424645,-0.621816,-3.18797,65.6128,66.9347,65.6886,-0.834277,0.0759804,25,5292,3
155.66,0.836887,0.988436,-0.328569,-2.60098,152.902,155.978,152.638,-0.382616,0.0759804,25,5293,3
65.0113,1.50364,0.857695,-0.554138,-4.66185,62.6185,65.2875,62.8189,-1.03072,0.107648,25,5294,3
151.512,1.19636,1.98773,-0.179819,-3.70555,145.967,152.151,145.443,-0.295239,0.107648,25,5295,3
222.46,0.535202,1.27756,-0.140678,-1.87787,218.35,222.825,218.003,-0.159462,0.0379902,25,5296,3
267.014,0.342813,1.52641,-0.0259876,-1.20412,262.102,267.45,261.672,-0.0326347,0.0379902,25,5297,3
216.67,0.721389,2.54399,0.0611439,-2.54619,208.481,217.397,207.79,0.0256068,0.0538238,25,5298,3
260.127,0.424289,3.00918,0.19515,-1.50608,250.436,260.986,249.587,0.184598,0.0538238,25,5299,3
222.372,0.598287,1.40985,-0.140678,-1.85874,218.438,222.825,218.003,-0.159462,0.0379902,25,5300,3
266.908,0.383936,1.68521,-0.0259876,-1.19165,262.208,267.45,261.672,-0.0326347,0.0379902,25,5301,3
216.493,0.814772,2.80936,0.0611439,-2.51786,208.658,217.397,207.79,0.0256068,0.0538238,25,5302,3
259.916,0.483951,3.32475,0.19515,-1.48798,250.647,260.986,249.587,0.184598,0.0538238,25,5303,3
300.471,0.173141,1.70754,0.0572082,-0.61013,294.973,300.959,294.487,0.0557108,0.0189951,25,5304,3
322.808,0.0450814,1.82163,0.1189,-0.161918,316.941,323.328,316.421,0.118675,0.0189951,25,5305,3
292.776,0.172678,3.34061,0.280866,-0.62535,282.015,293.73,281.063,0.278459,0.0269119,25,5306,3
314.585,-0.00811789,3.54626,0.332781,0.00755147,303.157,315.597,302.148,0.330161,0.0269119,25,5307,3
300.352,0.195009,1.88611,0.0572082,-0.603496,295.093,300.959,294.487,0.0557108,0.0189951,25,5308,3
322.68,0.052473,2.01322,0.1189,-0.159676,317.069,323.328,316.421,0.118675,0.0189951,25,5309,3
292.541,0.203849,3.69271,0.280866,-0.615894,282.25,293.73,281.063,0.278459,0.0269119,25,5310,3
314.334,0.00255441,3.92173,0.332781,0.0107889,303.408,315.597,302.148,0.330161,0.0269119,25,5311,3
-223.277,0.86568,-5.77465,-1.84793,-3.03175,-204.689,-1.7565,-203.13,-224.927,0.620593,25,5312,3
-60.6851,1.83757,-1.59017,-1.14883,-6.43596,-55.5684,1.85108,-55.603,-63.6504,0.620593,25,5313,3
-197.205,1.24468,-11.2597,-1.57028,-4.34049,-160.993,-1.32493,-158.019,-200.425,0.873929,25,5314,3
-53.6201,2.54113,-3.06826,-1.09957,-8.88119,-43.7522,3.31703,-44.0323,-57.7567,0.873929,25,5315,3
-222.874,0.964563,-6.37657,-1.84793,-3.00175,-205.091,-1.7565,-203.13,-224.927,0.620593,25,5316,3
-60.5749,2.04774,-1.75508,-1.14883,-6.37221,-55.6786,1.85108,-55.603,-63.6504,0.620593,25,5317,3
-196.431,1.37653,-12.4189,-1.57028,-4.30049,-161.768,-1.32493,-158.019,-200.425,0.873929,25,5318,3
-53.409,2.82125,-3.3842,-1.09957,-8.79622,-43.9633,3.31703,-44.0323,-57.7567,0.873929,25,5319,3
61.0355,1.87122,1.59289,-0.561027,-6.55368,55.9097,61.5015,56.577,-1.69426,0.310296,25,5320,3
142.237,1.52405,3.70568,-0.190504,-5.33788,130.311,143.296,129.557,-0.495453,0.310296,25,5321,3
53.936,2.58602,3.07958,-0.617072,-9.03839,44.0317,54.8893,45.5802,-3.11891,0.436965,25,5322,3
125.676,2.12259,7.17749,-0.329553,-7.41537,102.592,127.728,101.286,-1.07573,0.436965,25,5323,3
60.9251,2.08517,1.75825,-0.561027,-6.48878,56.0202,61.5015,56.577,-1.69426,0.310296,25,5324,3
141.98,1.69836,4.09069,-0.190504,-5.285,130.569,143.296,129.557,-0.495453,0.310296,25,5325,3
53.7241,2.87127,3.3967,-0.617072,-8.95186,44.2436,54.8893,45.5802,-3.11891,0.436965,25,5326,3
125.182,2.35489,7.91653,-0.329553,-7.3449,103.086,127.728,101.286,-1.07573,0.436965,25,5327,3
203.22,1.0895,5.2764,0.0540188,-3.81596,186.238,204.727,184.838,-0.054076,0.155148,25,5328,3
243.948,0.705685,6.30812,0.199484,-2.47156,223.644,245.751,221.881,0.159832,0.155148,25,5329,3
179.533,1.54283,10.2506,-0.167575,-5.38485,146.565,182.463,143.916,-0.448808,0.218482,25,5330,3
215.481,1.03109,12.2972,-0.100228,-3.59255,175.932,218.997,172.53,-0.214318,0.218482,25,5331,3
202.853,1.21414,5.82538,0.0540188,-3.77815,186.605,204.727,184.838,-0.054076,0.155148,25,5332,3
243.509,0.786369,6.96554,0.199484,-2.44709,224.083,245.751,221.881,0.159832,0.155148,25,5333,3
178.827,1.70884,11.306,-0.167575,-5.33449,147.271,182.463,143.916,-0.448808,0.218482,25,5334,3
214.635,1.13859,13.5632,-0.100228,-3.55994,176.778,218.997,172.53,-0.214318,0.218482,25,5335,3
274.537,0.372421,7.07382,0.298733,-1.30418,251.765,276.558,249.754,0.288463,0.0775741,25,5336,3
294.958,0.125185,7.57759,0.363304,-0.438156,270.563,297.123,268.4,0.361281,0.0775741,25,5337,3
242.47,0.586809,13.8297,-0.0712697,-2.03676,197.993,246.424,194.075,-0.107996,0.109241,25,5338,3
260.483,0.257136,14.8483,-0.0626074,-0.882668,212.729,264.729,208.494,-0.0720732,0.109241,25,5339,3
274.043,0.414908,7.81213,0.298733,-1.29129,252.258,276.558,249.754,0.288463,0.0775741,25,5340,3
294.429,0.139339,8.36943,0.363304,-0.433863,271.092,297.123,268.4,0.361281,0.0775741,25,5341,3
241.519,0.64365,15.2535,-0.0712697,-2.01952,198.944,246.424,194.075,-0.107996,0.109241,25,5342,3
259.462,0.276583,16.3772,-0.0626074,-0.876769,213.751,264.729,208.494,-0.0720732,0.109241,25,5343,3
-173.038,1.42128,-16.4839,-1.41578,-4.99453,-120.032,-1.02598,-115.708,-177.751,0.531966,25,5344,3
-47.066,3.15001,-4.46815,-1.05601,-11.0468,-32.6968,4.93065,-33.4871,-52.2624,0.531966,25,5345,3
-153.557,1.64349,-20.6403,-1.57626,-5.75134,-87.1728,-0.853127,-81.9947,-159.458,0.5953,25,5346,3
-41.7473,3.4775,-5.61567,-1.1217,-12.1727,-23.6852,6.4507,-25.3872,-47.6177,0.5953,25,5347,3
-171.906,1.59306,-18.1775,-1.41578,-4.94242,-121.163,-1.02598,-115.708,-177.751,0.531966,25,5348,3
-46.7588,3.51817,-4.92783,-1.05601,-10.9352,-33.0039,4.93065,-33.4871,-52.2624,0.531966,25,5349,3
-152.136,1.82876,-22.7666,-1.57626,-5.69514,-88.5935,-0.853127,-81.9947,-159.458,0.5953,25,5350,3
-41.3605,3.87138,-6.1946,-1.1217,-12.0533,-24.072,6.4507,-25.3872,-47.6177,0.5953,25,5351,3
47.3513,3.21403,4.48809,-0.667099,-11.2711,32.9182,48.6346,35.8873,-4.91951,0.265983,25,5352,3
110.317,2.59021,10.4702,-0.440408,-9.08682,76.6471,113.311,74.9484,-1.73549,0.265983,25,5353,3
42.0164,3.54204,5.63765,-0.600064,-12.3988,23.8837,43.6282,28.485,-6.81318,0.29765,25,5354,3
97.8875,2.88689,13.1427,-0.295367,-10.1045,55.6163,101.645,54.0819,-2.51844,0.29765,25,5355,3
47.0428,3.5895,4.94969,-0.667099,-11.1572,33.2266,48.6346,35.8873,-4.91951,0.265983,25,5356,3
109.598,2.89469,11.5469,-0.440408,-8.99445,77.3665,113.311,74.9484,-1.73549,0.265983,25,5357,3
41.6281,3.94333,6.21874,-0.600064,-12.2771,24.272,43.6282,28.485,-6.81318,0.29765,25,5358,3
96.9824,3.21342,14.4972,-0.295367,-10.0055,56.5214,101.645,54.0819,-2.51844,0.29765,25,5359,3
157.572,1.81512,14.9761,-0.31911,-6.37316,109.413,161.854,105.572,-0.761153,0.132991,25,5360,3
189.091,1.14038,17.9994,-0.275319,-4.0111,131.212,194.238,126.218,-0.428484,0.132991,25,5361,3
139.835,2.06768,18.7751,-0.13243,-7.23591,79.4496,145.203,74.8942,-0.944825,0.148825,25,5362,3
167.828,1.34558,22.5355,-0.0854123,-4.70791,95.3487,174.271,89.2078,-0.387566,0.148825,25,5363,3
156.543,2.03152,16.5155,-0.31911,-6.30751,110.441,161.854,105.572,-0.761153,0.132991,25,5364,3
187.856,1.28026,19.8487,-0.275319,-3.96867,132.448,194.238,126.218,-0.428484,0.132991,25,5365,3
138.543,2.30085,20.7097,-0.13243,-7.16518,80.7423,145.203,74.8942,-0.944825,0.148825,25,5366,3
166.277,1.49676,24.8571,-0.0854123,-4.66205,96.9,174.271,89.2078,-0.387566,0.148825,25,5367,3
212.745,0.564861,20.2751,-0.262915,-1.9968,147.549,218.543,141.787,-0.298264,0.0664957,25,5368,3
228.523,0.146863,21.7969,-0.266031,-0.534181,158.435,234.756,152.209,-0.272065,0.0664957,25,5369,3
188.837,0.720072,25.3593,-0.0867472,-2.51854,107.277,196.088,100.107,-0.166436,0.0744125,25,5370,3
202.851,0.256621,27.2444,-0.112946,-0.897028,115.229,210.64,107.453,-0.12588,0.0744125,25,5371,3
211.354,0.639698,22.3575,-0.262915,-1.9741,148.941,218.543,141.787,-0.298264,0.0664957,25,5372,3
227.028,0.174663,24.0351,-0.266031,-0.525748,159.931,234.756,152.209,-0.272065,0.0664957,25,5373,3
187.092,0.800511,27.9712,-0.0867472,-2.49414,109.023,196.088,100.107,-0.166436,0.0744125,25,5374,3
200.976,0.284989,30.05,-0.112946,-0.888422,117.104,210.64,107.453,-0.12588,0.0744125,25,5375,3
-137.696,1.74585,-24.0177,-1.54698,-6.12549,-60.4502,-0.359558,-54.7708,-144.562,0.3214,25,5376,3
-37.4281,3.77751,-6.52835,-1.0902,-13.2391,-16.4306,8.43275,-19.497,-43.8846,0.3214,25,5377,3
-126.26,1.88028,-26.4654,-1.57184,-6.58391,-41.1385,0.482249,-35.6261,-133.826,0.337234,25,5378,3
-34.3215,3.96539,-7.16575,-0.96696,-13.8848,-11.2739,10.3562,-15.778,-41.1406,0.337234,25,5379,3
-136.043,1.95152,-26.4915,-1.54698,-6.0631,-62.1032,-0.359558,-54.7708,-144.562,0.3214,25,5380,3
-36.9785,4.21439,-7.20131,-1.0902,-13.1066,-16.8802,8.43275,-19.497,-43.8846,0.3214,25,5381,3
-124.437,2.09442,-29.1931,-1.57184,-6.51895,-42.9611,0.482249,-35.6261,-133.826,0.337234,25,5382,3
-33.828,4.41688,-7.90439,-0.96696,-13.7478,-11.7675,10.3562,-15.778,-41.1406,0.337234,25,5383,3
37.6887,3.84525,6.55598,-0.602168,-13.4765,16.6026,39.5631,23.2742,-9.14808,0.1607,25,5384,3
87.7939,3.12065,15.2824,-0.324174,-10.9386,38.6409,92.1631,37.8487,-3.9012,0.1607,25,5385,3
34.547,3.99893,7.26716,-0.440971,-14.0025,11.1732,36.6307,19.778,-11.1295,0.168617,25,5386,3
80.5217,3.23113,16.8614,-0.184687,-11.3135,26.2897,85.3423,26.8294,-5.54508,0.168617,25,5387,3
37.2372,4.28993,7.23165,-0.602168,-13.3416,17.0541,39.5631,23.2742,-9.14808,0.1607,25,5388,3
86.7415,3.48244,16.8574,-0.324174,-10.8289,39.6933,92.1631,37.8487,-3.9012,0.1607,25,5389,3
34.0465,4.4544,8.01629,-0.440971,-13.8644,11.6737,36.6307,19.778,-11.1295,0.168617,25,5390,3
79.3604,3.59888,18.5993,-0.184687,-11.202,27.4509,85.3423,26.8294,-5.54508,0.168617,25,5391,3
125.415,2.21348,21.8346,-0.177743,-7.76182,55.1887,131.657,50.2832,-1.51472,0.0803501,25,5392,3
150.513,1.41323,26.2188,-0.12683,-4.96028,66.1875,158.009,59.1712,-0.606675,0.0803501,25,5393,3
115.066,2.29645,24.0485,-0.0594784,-8.04052,37.7183,121.942,33.0485,-2.26519,0.0843085,25,5394,3
138.135,1.48454,28.8412,-0.0218075,-5.19783,45.3722,146.381,37.9567,-0.852026,0.0843085,25,5395,3
123.911,2.4718,24.0844,-0.177743,-7.68346,56.692,131.657,50.2832,-1.51472,0.0803501,25,5396,3
148.708,1.58072,28.9196,-0.12683,-4.90947,67.9921,158.009,59.1712,-0.606675,0.0803501,25,5397,3
113.41,2.55764,26.5272,-0.0594784,-7.96128,39.3745,121.942,33.0485,-2.26519,0.0843085,25,5398,3
136.149,1.65341,31.8139,-0.0218075,-5.1466,47.3584,146.381,37.9567,-0.852026,0.0843085,25,5399,3
169.341,0.723769,29.5197,-0.114366,-2.54746,74.402,177.781,66.0765,-0.22894,0.040175,25,5400,3
181.889,0.220898,31.7326,-0.123901,-0.7879,79.835,190.962,70.7779,-0.139739,0.040175,25,5401,3
155.453,0.785967,32.4412,-0.0182073,-2.75217,51.1112,164.727,42.0476,-0.229328,0.0421542,25,5402,3
166.996,0.270884,34.8483,-0.0443346,-0.950414,54.9134,176.959,44.9811,-0.075129,0.0421542,25,5403,3
167.31,0.813503,32.5595,-0.114366,-2.52024,76.4331,177.781,66.0765,-0.22894,0.040175,25,5404,3
179.706,0.254064,34.9992,-0.123901,-0.777839,82.0176,190.962,70.7779,-0.139739,0.040175,25,5405,3
153.219,0.875517,35.7847,-0.0182073,-2.72501,53.3453,164.727,42.0476,-0.229328,0.0421542,25,5406,3
164.596,0.30279,38.4396,-0.0443346,-0.940735,57.313,176.959,44.9811,-0.075129,0.0421542,25,5407,3
-117.286,1.98162,-28.4212,-1.59538,-6.94248,-25.8746,1.87701,-21.2214,-125.412,0.174555,25,5408,3
-32.0656,4.14513,-7.61869,-1.12098,-14.5179,-7.56121,12.1169,-13.63,-39.2347,0.174555,25,5409,3
-111.217,1.91372,-29.7603,-1.96392,-6.70336,-15.4979,3.33661,-12.29,-119.725,0.178513,25,5410,3
-30.7896,4.11667,-8.09548,-2.8317,-14.4172,-4.75232,12.4143,-12.4406,-38.3473,0.178513,25,5411,3
-115.329,2.20938,-31.3503,-1.59538,-6.87339,-27.8317,1.87701,-21.2214,-125.412,0.174555,25,5412,3
-31.5409,4.61916,-8.40402,-1.12098,-14.3741,-8.08595,12.1169,-13.63,-39.2347,0.174555,25,5413,3
-109.167,2.13299,-32.8275,-1.96392,-6.63685,-17.5474,3.33661,-12.29,-119.725,0.178513,25,5414,3
-30.2322,4.58691,-8.92964,-2.8317,-14.2746,-5.30968,12.4143,-12.4406,-38.3473,0.178513,25,5415,3
31.9271,4.13749,7.87701,-0.542244,-14.4921,6.59135,34.1849,17.1995,-13.4082,0.0872773,25,5416,3
74.7848,3.29234,18.1171,-0.178736,-11.5322,16.5129,79.9641,18.9896,-7.83476,0.0872773,25,5417,3
29.6875,4.36235,8.09643,-2.82494,-15.2817,3.64299,32.0154,15.2756,-16.7854,0.0892564,25,5418,3
70.2923,3.61264,18.9648,-1.82403,-12.6595,9.28726,75.7153,14.5171,-12.4769,0.0892564,25,5419,3
31.3844,4.61116,8.68917,-0.542244,-14.3484,7.13401,34.1849,17.1995,-13.4082,0.0872773,25,5420,3
73.5367,3.66948,19.985,-0.178736,-11.4178,17.761,79.9641,18.9896,-7.83476,0.0872773,25,5421,3
29.1288,4.8629,8.93263,-2.82494,-15.1299,4.20172,32.0154,15.2756,-16.7854,0.0892564,25,5422,3
68.9838,4.02944,20.9231,-1.82403,-12.5331,10.5958,75.7153,14.5171,-12.4769,0.0892564,25,5423,3
107.064,2.29477,25.7342,-0.0263066,-8.0381,24.2931,114.421,20.4409,-3.531,0.0436386,25,5424,3
128.646,1.45527,30.7908,-0.00575912,-5.09906,29.6125,137.45,22.1539,-1.35048,0.0436386,25,5425,3
101.11,2.50866,27.0108,-0.751755,-8.79319,14.2235,108.833,12.8367,-7.08792,0.0446282,25,5426,3
121.959,1.52956,32.1883,-0.216219,-5.36045,18.4228,131.16,12.0327,-3.02718,0.0446282,25,5427,3
105.291,2.5577,28.3872,-0.0263066,-7.95835,26.0658,114.421,20.4409,-3.531,0.0436386,25,5428,3
126.526,1.62287,33.9646,-0.00575912,-5.04822,31.7331,137.45,22.1539,-1.35048,0.0436386,25,5429,3
99.2466,2.79936,29.7998,-0.751755,-8.705,16.087,108.833,12.8367,-7.08792,0.0446282,25,5430,3
119.74,1.70632,35.5096,-0.216219,-5.30683,20.6421,131.16,12.0327,-3.02718,0.0446282,25,5431,3
144.856,0.749402,34.5847,-0.00604522,-2.63044,33.6206,154.746,24.0637,-0.338228,0.0218193,25,5432,3
155.643,0.249587,37.1311,-0.0522838,-0.878658,36.2191,166.259,25.6558,-0.105037,0.0218193,25,5433,3
137.76,0.739315,35.9577,0.032471,-2.58893,22.1075,148.037,12.4942,-0.631831,0.0223141,25,5434,3
148.25,0.247123,38.4317,-0.138171,-0.874733,24.6467,159.24,13.8722,-0.353987,0.0223141,25,5435,3
142.475,0.838288,38.1493,-0.00604522,-2.60347,36.0024,154.746,24.0637,-0.338228,0.0218193,25,5436,3
153.087,0.280633,40.9572,-0.0522838,-0.86924,38.7757,166.259,25.6558,-0.105037,0.0218193,25,5437,3
135.283,0.823612,39.6639,0.032471,-2.56335,24.5839,148.037,12.4942,-0.631831,0.0223141,25,5438,3
145.605,0.2805,42.3901,-0.138171,-0.864608,27.2915,159.24,13.8722,-0.353987,0.0223141,25,5439,3
-106.902,1.61706,-30.6161,-2.4416,-5.66204,-8.46156,5.09622,-7.24401,-115.657,0.0922591,25,5440,3
-29.9703,3.61559,-8.70322,-5.81057,-12.662,-1.98553,10.9194,-11.0503,-37.6354,0.0922591,25,5441,3
-104.28,1.25622,-30.9132,-2.38451,-4.39762,-4.88519,6.59699,-5.02629,-113.121,0.0932817,25,5442,3
-29.3708,2.71308,-9.06285,-7.54231,-9.49612,-0.230083,8.50696,-9.22007,-36.4301,0.0932817,25,5443,3
-104.803,1.80112,-33.7573,-2.4416,-5.60621,-10.5605,5.09622,-7.24401,-115.657,0.0922591,25,5444,3
-29.3733,4.02837,-9.59669,-5.81057,-12.5368,-2.58253,10.9194,-11.0503,-37.6354,0.0922591,25,5445,3
-102.161,1.39868,-34.0846,-2.38451,-4.3544,-7.00427,6.59699,-5.02629,-113.121,0.0932817,25,5446,3
-28.7493,3.01992,-9.99308,-7.54231,-9.40304,-0.851642,8.50696,-9.22007,-36.4301,0.0932817,25,5447,3
27.6584,4.33166,7.58311,-8.80299,-15.1723,3.28103,29.8303,12.7352,-20.429,0.0461296,25,5448,3
65.9862,4.36337,18.9476,-8.82122,-15.2926,5.07253,71.4186,11.9179,-21.0991,0.0461296,25,5449,3
26.5137,3.21792,6.73892,-14.6672,-11.2537,4.84976,28.4479,8.89482,-20.6464,0.0466408,25,5450,3
62.8153,3.75525,17.3848,-21.789,-13.0964,6.93683,67.8596,8.50862,-28.405,0.0466408,25,5451,3
27.14,4.82762,8.35893,-8.80299,-15.0218,3.79942,29.8303,12.7352,-20.429,0.0461296,25,5452,3
64.6899,4.8681,20.8875,-8.82122,-15.1395,6.36877,71.4186,11.9179,-21.0991,0.0461296,25,5453,3
26.0529,3.57664,7.42855,-14.6672,-11.1449,5.31056,28.4479,8.89482,-20.6464,0.0466408,25,5454,3
61.6294,4.15357,19.1596,-21.789,-12.9755,8.12272,67.8596,8.50862,-28.405,0.0466408,25,5455,3
95.0811,3.73404,27.8909,-6.07199,-13.1055,5.41242,103.091,9.46139,-18.1307,0.0230648,25,5456,3
115.283,2.45834,33.747,-2.59873,-8.65643,6.78084,124.984,6.58933,-12.1073,0.0230648,25,5457,3
88.9465,4.70904,25.9722,-27.7074,-16.3678,5.48198,96.6849,7.30294,-37.2668,0.0233204,25,5458,3
105.654,5.82257,32.6611,-29.4679,-20.1562,0.692458,116.044,5.96275,-45.1288,0.0233204,25,5459,3
93.172,4.17626,30.7482,-6.07199,-12.9713,7.32155,103.091,9.46139,-18.1307,0.0230648,25,5460,3
112.971,2.76522,37.2073,-2.59873,-8.56334,9.0929,124.984,6.58933,-12.1073,0.0230648,25,5461,3
87.1797,5.17804,28.6164,-27.7074,-16.2255,7.24881,96.6849,7.30294,-37.2668,0.0233204,25,5462,3
103.431,6.35687,35.9868,-29.4679,-19.9941,2.91463,116.044,5.96275,-45.1288,0.0233204,25,5463,3
131.419,1.06316,37.4097,-0.676695,-3.78524,11.1211,142.169,5.59575,-5.90138,0.0115324,25,5464,3
141.848,0.555697,39.6412,-1.61754,-1.99074,14.3847,153.284,8.77274,-7.44193,0.0115324,25,5465,3
117.628,6.38478,39.0101,-26.5077,-21.9915,-7.75648,131.149,6.07437,-53.8596,0.0116602,25,5466,3
125.929,4.92034,44.0862,-20.0946,-16.7243,-15.8704,142.955,6.59839,-59.5896,0.0116602,25,5467,3
128.85,1.21898,41.2545,-0.676695,-3.73798,13.6901,142.169,5.59575,-5.90138,0.0115324,25,5468,3
139.129,0.64395,43.7104,-1.61754,-1.96397,17.1037,153.284,8.77274,-7.44193,0.0115324,25,5469,3
114.968,6.9091,42.9917,-26.5077,-21.8325,-5.0961,131.149,6.07437,-53.8596,0.0116602,25,5470,3
122.891,5.20039,48.6315,-20.0946,-16.6393,-12.8333,142.955,6.59839,-59.5896,0.0116602,25,5471,3
-250.947,0.0464276,-0.0136348,-1.6153,-0.129936,-250.914,-1.61518,-250.909,-250.952,0.00167713,25,5472,3
-68.2543,0.0990036,-0.00373025,-1.10911,-0.27688,-68.2452,-0.183942,-68.2445,-69.1802,0.00167713,25,5473,3
-250.87,0.0726301,-0.0328006,-1.61512,-0.203105,-250.79,-1.61482,-250.779,-250.882,0.00266631,25,5474,3
-68.2331,0.15471,-0.00898156,-1.10918,-0.432541,-68.2112,-0.170956,-68.2096,-69.173,0.00266631,25,5475,3
-250.947,0.0507379,-0.0146897,-1.6153,-0.128311,-250.915,-1.61517,-250.909,-250.952,0.00167713,25,5476,3
-68.254,0.108095,-0.0040186,-1.10911,-0.273455,-68.2454,-0.183943,-68.2445,-69.1802,0.00167713,25,5477,3
-250.868,0.0793076,-0.0353356,-1.61512,-0.200596,-250.792,-1.61482,-250.779,-250.882,0.00266631,25,5478,3
-68.2325,0.168875,-0.00967434,-1.10918,-0.427214,-68.2118,-0.170956,-68.2096,-69.173,0.00266631,25,5479,3
68.628,0.100855,0.00373763,-0.607236,-0.282056,68.6189,68.6294,68.6192,-0.608878,0.000838566,25,5480,3
159.92,0.082029,0.00871889,-0.305328,-0.229439,159.899,159.923,159.896,-0.305738,0.000838566,25,5481,3
68.6069,0.157708,0.00900316,-0.60706,-0.4409,68.5849,68.6101,68.5856,-0.611001,0.00133315,25,5482,3
159.87,0.128217,0.0209607,-0.305221,-0.358485,159.819,159.878,159.813,-0.306201,0.00133315,25,5483,3
68.6278,0.110118,0.00402664,-0.607235,-0.278566,68.6192,68.6294,68.6192,-0.608877,0.000838566,25,5484,3
159.919,0.0895773,0.00939284,-0.305329,-0.226595,159.899,159.923,159.896,-0.305739,0.000838566,25,5485,3
68.6063,0.172132,0.00969782,-0.60706,-0.435476,68.5855,68.6101,68.5856,-0.611001,0.00133315,25,5486,3
159.869,0.139964,0.0225787,-0.30522,-0.354068,159.821,159.878,159.813,-0.306201,0.00133315,25,5487,3
228.445,0.0585099,0.0124582,-0.128623,-0.163705,228.414,228.449,228.41,-0.128763,0.000419283,25,5488,3
274.172,0.0378238,0.0149149,-0.0495691,-0.105888,274.135,274.177,274.13,-0.0496204,0.000419283,25,5489,3
228.374,0.0914492,0.0298789,-0.128872,-0.255713,228.301,228.385,228.291,-0.129207,0.000666576,25,5490,3
274.087,0.0591909,0.035804,-0.0502438,-0.165542,274,274.1,273.987,-0.0503645,0.000666576,25,5491,3
228.444,0.0639195,0.0134222,-0.128623,-0.161666,228.415,228.449,228.41,-0.128764,0.000419283,25,5492,3
274.17,0.04135,0.0160684,-0.049571,-0.104558,274.136,274.177,274.13,-0.0496223,0.000419283,25,5493,3
228.372,0.0998458,0.0321852,-0.128872,-0.252558,228.303,228.385,228.291,-0.129207,0.000666576,25,5494,3
274.084,0.0646451,0.0385701,-0.0502437,-0.163494,274.002,274.1,273.987,-0.0503645,0.000666576,25,5495,3
308.492,0.0200044,0.0167218,-0.0128831,-0.0560725,308.451,308.498,308.445,-0.0128969,0.000209641,25,5496,3
331.388,0.00687176,0.0178651,-0.00186489,-0.0193773,331.344,331.394,331.338,-0.00186798,0.000209641,25,5497,3
308.397,0.0314045,0.0403295,-0.013774,-0.0878626,308.298,308.411,308.284,-0.0138049,0.000333288,25,5498,3
331.285,0.01074,0.0431972,-0.00213332,-0.0300941,331.18,331.301,331.165,-0.00213864,0.000333288,25,5499,3
308.491,0.021904,0.0180201,-0.0128778,-0.0553591,308.452,308.498,308.445,-0.0128915,0.000209641,25,5500,3
331.386,0.00757653,0.0192452,-0.00186569,-0.0191171,331.345,331.394,331.338,-0.00186879,0.000209641,25,5501,3
308.394,0.0343167,0.0434435,-0.0137744,-0.0867702,308.301,308.411,308.284,-0.0138053,0.000333288,25,5502,3
331.283,0.0117642,0.0465519,-0.00213514,-0.0297094,331.183,331.301,331.165,-0.00214046,0.000333288,25,5503,3
-250.675,0.113715,-0.0812929,-1.61581,-0.317916,-250.477,-1.61507,-250.448,-250.704,0.00830233,25,5504,3
-68.1797,0.242907,-0.0222758,-1.10928,-0.678995,-68.1254,-0.140948,-68.121,-69.1523,0.00830233,25,5505,3
-250.308,0.166241,-0.172014,-1.61445,-0.465166,-249.888,-1.61289,-249.828,-250.369,0.0122607,25,5506,3
-68.0793,0.354728,-0.0468901,-1.10793,-0.992098,-67.9651,-0.0848245,-67.9562,-69.1113,0.0122607,25,5507,3
-250.669,0.124121,-0.0876087,-1.6158,-0.313999,-250.482,-1.61507,-250.448,-250.704,0.00830233,25,5508,3
-68.1781,0.265065,-0.0239978,-1.10928,-0.670655,-68.1269,-0.140948,-68.121,-69.1523,0.00830233,25,5509,3
-250.296,0.181719,-0.185364,-1.61445,-0.459341,-249.9,-1.61289,-249.828,-250.369,0.0122607,25,5510,3
-68.0762,0.387437,-0.0505126,-1.10793,-0.979787,-67.9683,-0.0848245,-67.9562,-69.1113,0.0122607,25,5511,3
68.5531,0.24733,0.0223924,-0.60705,-0.691387,68.4985,68.5611,68.5003,-0.616817,0.00415116,25,5512,3
159.746,0.201051,0.0519999,-0.304829,-0.562021,159.619,159.764,159.603,-0.30726,0.00415116,25,5513,3
68.4525,0.361271,0.0469928,-0.608432,-1.01037,68.338,68.4693,68.3418,-0.629114,0.00613036,25,5514,3
159.511,0.294064,0.109671,-0.306771,-0.822493,159.244,159.55,159.21,-0.311931,0.00613036,25,5515,3
68.5516,0.26991,0.0241254,-0.60705,-0.682889,68.5,68.5611,68.5003,-0.616817,0.00415116,25,5516,3
159.742,0.219407,0.0560333,-0.304829,-0.555112,159.622,159.764,159.603,-0.30726,0.00415116,25,5517,3
68.4493,0.394565,0.0506286,-0.608432,-0.997839,68.3412,68.4693,68.3418,-0.629114,0.00613036,25,5518,3
159.504,0.321218,0.118163,-0.306771,-0.812273,159.251,159.55,159.21,-0.311931,0.00613036,25,5519,3
228.196,0.143291,0.0740912,-0.128335,-0.400574,228.016,228.223,227.99,-0.129164,0.00207558,25,5520,3
273.873,0.092746,0.0887335,-0.0499424,-0.259269,273.657,273.905,273.626,-0.0502405,0.00207558,25,5521,3
227.861,0.209985,0.156876,-0.13139,-0.587418,227.478,227.917,227.424,-0.133158,0.00306518,25,5522,3
273.471,0.136002,0.188388,-0.052608,-0.380551,273.012,273.539,272.945,-0.053245,0.00306518,25,5523,3
228.191,0.156384,0.0798405,-0.128335,-0.395646,228.021,228.223,227.99,-0.129164,0.00207558,25,5524,3
273.867,0.101217,0.0956196,-0.0499424,-0.25608,273.663,273.905,273.626,-0.0502405,0.00207558,25,5525,3
227.85,0.229436,0.16902,-0.13139,-0.580097,227.489,227.917,227.424,-0.133158,0.00306518,25,5526,3
273.458,0.148663,0.20298,-0.052608,-0.375786,273.025,273.539,272.945,-0.053245,0.00306518,25,5527,3
308.157,0.0492542,0.0997859,-0.0136446,-0.137676,307.913,308.192,307.878,-0.0137203,0.00103779,25,5528,3
331.028,0.0168477,0.106861,-0.000887275,-0.0470994,330.768,331.067,330.729,-0.000899239,0.00103779,25,5529,3
307.706,0.07139,0.21168,-0.0138718,-0.1999,307.19,307.782,307.114,-0.0140302,0.00153259,25,5530,3
330.549,0.0228622,0.225083,0.00251103,-0.0643005,330,330.63,329.92,0.00248759,0.00153259,25,5531,3
308.15,0.0537447,0.107532,-0.0136445,-0.135986,307.92,308.192,307.878,-0.0137202,0.00103779,25,5532,3
331.021,0.0183875,0.115197,-0.000887173,-0.04652,330.775,331.067,330.729,-0.000899137,0.00103779,25,5533,3
307.691,0.0781291,0.228112,-0.0138718,-0.197363,307.204,307.782,307.114,-0.0140302,0.00153259,25,5534,3
330.534,0.0252076,0.242692,0.00251104,-0.0634177,330.016,330.63,329.92,0.00248759,0.00153259,25,5535,3
-249.44,0.248584,-0.386584,-1.61811,-0.695447,-248.498,-1.61457,-248.363,-249.579,0.0363966,25,5536,3
-67.8418,0.530185,-0.106148,-1.10822,-1.48258,-67.5831,0.0252236,-67.5627,-68.9956,0.0363966,25,5537,3
-247.863,0.346984,-0.777957,-1.63049,-0.9732,-245.966,-1.62348,-245.695,-248.142,0.0522301,25,5538,3
-67.4006,0.760772,-0.2162,-1.10017,-2.12995,-66.874,0.21191,-66.8331,-68.7536,0.0522301,25,5539,3
-249.414,0.271645,-0.416725,-1.61811,-0.686767,-248.524,-1.61457,-248.363,-249.579,0.0363966,25,5540,3
-67.8346,0.578919,-0.114349,-1.10822,-1.46424,-67.5903,0.0252236,-67.5627,-68.9956,0.0363966,25,5541,3
-247.81,0.380799,-0.838787,-1.63049,-0.960473,-246.02,-1.62348,-245.695,-248.142,0.0522301,25,5542,3
-67.386,0.832392,-0.232845,-1.10017,-2.10299,-66.8886,0.21191,-66.8331,-68.7536,0.0522301,25,5543,3
68.2144,0.539298,0.106336,-0.60839,-1.50817,67.9553,68.2525,67.9639,-0.655077,0.0181983,25,5544,3
158.958,0.439192,0.246666,-0.306996,-1.22821,158.357,159.046,158.28,-0.318676,0.0181983,25,5545,3
67.775,0.77268,0.215633,-0.612844,-2.16335,67.2496,67.8523,67.2683,-0.708879,0.0261151,25,5546,3
157.936,0.628942,0.501365,-0.314018,-1.76127,156.714,158.115,156.559,-0.338091,0.0261151,25,5547,3
68.2072,0.588941,0.114577,-0.60839,-1.48949,67.9625,68.2525,67.9639,-0.655077,0.0181983,25,5548,3
158.941,0.479614,0.265833,-0.306996,-1.213,158.373,159.046,158.28,-0.318676,0.0181983,25,5549,3
67.7604,0.845464,0.232323,-0.612844,-2.13596,67.2642,67.8523,67.2683,-0.708879,0.0261151,25,5550,3
157.902,0.688425,0.540231,-0.314018,-1.73889,156.748,158.115,156.559,-0.338091,0.0261151,25,5551,3
227.069,0.314416,0.352339,-0.133784,-0.879287,226.211,227.196,226.089,-0.13781,0.00909915,25,5552,3
272.521,0.204348,0.423148,-0.0542558,-0.571516,271.49,272.673,271.34,-0.0557191,0.00909915,25,5553,3
225.616,0.446713,0.71625,-0.132028,-1.2516,223.871,225.873,223.622,-0.140226,0.0130575,25,5554,3
270.794,0.28251,0.854384,-0.0379223,-0.792503,268.711,271.1,268.408,-0.0407428,0.0130575,25,5555,3
227.045,0.343364,0.379707,-0.133784,-0.868392,226.235,227.196,226.089,-0.13781,0.00909915,25,5556,3
272.492,0.223189,0.456054,-0.0542558,-0.564424,271.519,272.673,271.34,-0.0557191,0.00909915,25,5557,3
225.568,0.489383,0.771859,-0.132028,-1.23554,223.919,225.873,223.622,-0.140226,0.0130575,25,5558,3
270.736,0.310131,0.921003,-0.0379223,-0.782107,268.77,271.1,268.408,-0.0407428,0.0130575,25,5559,3
306.638,0.108025,0.475591,-0.0114495,-0.302252,305.478,306.808,305.309,-0.0118172,0.00454957,25,5560,3
329.405,0.0349683,0.508066,0.0132138,-0.0981306,328.166,329.587,327.984,0.013163,0.00454957,25,5561,3
304.717,0.138635,0.951137,0.0191474,-0.390404,302.397,305.057,302.057,0.0185404,0.00652877,25,5562,3
327.365,0.0323714,1.00608,0.0535293,-0.0936184,324.909,327.724,324.55,0.0534256,0.00652877,25,5563,3
306.605,0.118071,0.51269,-0.0114495,-0.298471,305.511,306.808,305.309,-0.0118172,0.00454957,25,5564,3
329.37,0.0384115,0.547974,0.0132138,-0.0968347,328.201,329.587,327.984,0.013163,0.00454957,25,5565,3
304.651,0.15318,1.02576,0.0191474,-0.38493,302.462,305.057,302.057,0.0185404,0.00652877,25,5566,3
327.295,0.0373888,1.0857,0.0535294,-0.09173,324.979,327.724,324.55,0.0534256,0.00652877,25,5567,3
-244.204,0.514628,-1.67496,-1.65033,-1.44186,-240.119,-1.63431,-239.535,-244.803,0.151961,25,5568,3
-66.3966,1.10828,-0.463897,-1.09101,-3.10097,-65.2664,0.536719,-65.1841,-68.1066,0.151961,25,5569,3
-237.696,0.671748,-3.3043,-1.83141,-1.89417,-229.634,-1.8016,-228.482,-238.879,0.215295,25,5570,3
-64.5771,1.6094,-0.938532,-1.15179,-4.5143,-62.2895,1.01366,-62.1477,-66.8844,0.215295,25,5571,3
-244.088,0.563769,-1.80633,-1.65033,-1.42337,-240.234,-1.63431,-239.535,-244.803,0.151961,25,5572,3
-66.3651,1.21136,-0.499714,-1.09101,-3.06217,-65.2978,0.536719,-65.1841,-68.1066,0.151961,25,5573,3
-237.468,0.743866,-3.56529,-1.83141,-1.86703,-229.863,-1.8016,-228.482,-238.879,0.215295,25,5574,3
-64.5131,1.76647,-1.01151,-1.15179,-4.45519,-62.3535,1.01366,-62.1477,-66.8844,0.215295,25,5575,3
66.7689,1.12704,0.462479,-0.621816,-3.15355,65.6419,66.9347,65.6886,-0.834277,0.0759804,25,5576,3
155.593,0.91943,1.07634,-0.328569,-2.57296,152.969,155.978,152.638,-0.382616,0.0759804,25,5577,3
64.9531,1.64504,0.933649,-0.554138,-4.61385,62.6768,65.2875,62.8189,-1.03072,0.107648,25,5578,3
151.377,1.30666,2.16339,-0.179819,-3.66811,146.102,152.151,145.443,-0.295239,0.107648,25,5579,3
66.7375,1.23193,0.498359,-0.621816,-3.11407,65.6733,66.9347,65.6886,-0.834277,0.0759804,25,5580,3
155.519,1.00521,1.16,-0.328569,-2.54068,153.043,155.978,152.638,-0.382616,0.0759804,25,5581,3
64.8892,1.80532,1.00652,-0.554138,-4.55353,62.7407,65.2875,62.8189,-1.03072,0.107648,25,5582,3
151.229,1.43616,2.33258,-0.179819,-3.61937,146.25,152.151,145.443,-0.295239,0.107648,25,5583,3
222.276,0.656875,1.53489,-0.140678,-1.83885,218.534,222.825,218.003,-0.159462,0.0379902,25,5584,3
266.794,0.420832,1.83397,-0.0259876,-1.17912,262.322,267.45,261.672,-0.0326347,0.0379902,25,5585,3
216.303,0.886373,3.05668,0.0611439,-2.49355,208.848,217.397,207.79,0.0256068,0.0538238,25,5586,3
259.692,0.521883,3.61585,0.19515,-1.47511,250.871,260.986,249.587,0.184598,0.0538238,25,5587,3
222.171,0.718573,1.6545,-0.140678,-1.81563,218.639,222.825,218.003,-0.159462,0.0379902,25,5588,3
266.668,0.461051,1.97756,-0.0259876,-1.16398,262.448,267.45,261.672,-0.0326347,0.0379902,25,5589,3
216.093,0.977703,3.29663,0.0611439,-2.45918,209.058,217.397,207.79,0.0256068,0.0538238,25,5590,3
259.442,0.580234,3.9012,0.19515,-1.45315,251.121,260.986,249.587,0.184598,0.0538238,25,5591,3
300.224,0.212674,2.05172,0.0572082,-0.5975,295.22,300.959,294.487,0.0557108,0.0189951,25,5592,3
322.545,0.0555748,2.18896,0.1189,-0.158623,317.204,323.328,316.421,0.118675,0.0189951,25,5593,3
292.294,0.213208,4.01435,0.280866,-0.612717,282.497,293.73,281.063,0.278459,0.0269119,25,5594,3
314.073,-0.0085944,4.26172,0.332781,0.00700436,303.669,315.597,302.148,0.330161,0.0269119,25,5595,3
300.083,0.234062,2.21319,0.0572082,-0.58945,295.361,300.959,294.487,0.0557108,0.0189951,25,5596,3
322.393,0.0628039,2.3622,0.1189,-0.155902,317.356,323.328,316.421,0.118675,0.0189951,25,5597,3
292.015,0.243694,4.33273,0.280866,-0.601243,282.776,293.73,281.063,0.278459,0.0269119,25,5598,3
313.775,0.00184331,4.60123,0.332781,0.0109328,303.967,315.597,302.148,0.330161,0.0269119,25,5599,3
-222.443,1.06211,-6.93835,-1.84793,-2.96864,-205.522,-1.7565,-203.13,-224.927,0.620593,25,5600,3
-60.4557,2.25457,-1.91049,-1.14883,-6.302,-55.7979,1.85108,-55.603,-63.6504,0.620593,25,5601,3
-195.581,1.5259,-13.5267,-1.57028,-4.24979,-162.618,-1.32493,-158.019,-200.425,0.873929,25,5602,3
-53.1774,3.11655,-3.68603,-1.09957,-8.69597,-44.1949,3.31703,-44.0323,-57.7567,0.873929,25,5603,3
-221.966,1.15882,-7.48262,-1.84793,-2.93224,-205.999,-1.7565,-203.13,-224.927,0.620593,25,5604,3
-60.3249,2.46012,-2.05961,-1.14883,-6.22464,-55.9286,1.85108,-55.603,-63.6504,0.620593,25,5605,3
-194.661,1.65485,-14.5749,-1.57028,-4.20126,-163.537,-1.32493,-158.019,-200.425,0.873929,25,5606,3
-52.9269,3.39051,-3.97171,-1.09957,-8.59286,-44.4455,3.31703,-44.0323,-57.7567,0.873929,25,5607,3
60.8057,2.29584,1.91379,-0.561027,-6.41727,56.1396,61.5015,56.577,-1.69426,0.310296,25,5608,3
141.702,1.8699,4.45226,-0.190504,-5.22677,130.846,143.296,129.557,-0.495453,0.310296,25,5609,3
53.4917,3.17162,3.69962,-0.617072,-8.84991,44.476,54.8893,45.5802,-3.11891,0.436965,25,5610,3
124.64,2.60303,8.62259,-0.329553,-7.26067,103.628,127.728,101.286,-1.07573,0.436965,25,5611,3
60.6746,2.5051,2.06331,-0.561027,-6.33851,56.2707,61.5015,56.577,-1.69426,0.310296,25,5612,3
141.397,2.04038,4.8004,-0.190504,-5.16261,131.151,143.296,129.557,-0.495453,0.310296,25,5613,3
53.2402,3.4506,3.98637,-0.617072,-8.74491,44.7275,54.8893,45.5802,-3.11891,0.436965,25,5614,3
124.054,2.83023,9.29085,-0.329553,-7.17516,104.214,127.728,101.286,-1.07573,0.436965,25,5615,3
202.458,1.33675,6.33954,0.0540188,-3.73653,186.999,204.727,184.838,-0.054076,0.155148,25,5616,3
243.038,0.865822,7.5793,0.199484,-2.42011,224.554,245.751,221.881,0.159832,0.155148,25,5617,3
178.054,1.89172,12.3145,-0.167575,-5.27241,148.044,182.463,143.916,-0.448808,0.218482,25,5618,3
213.707,1.26385,14.773,-0.100228,-3.51742,177.706,218.997,172.53,-0.214318,0.218482,25,5619,3
202.023,1.45865,6.83595,0.0540188,-3.69065,187.434,204.727,184.838,-0.054076,0.155148,25,5620,3
242.517,0.944733,8.17376,0.199484,-2.39041,225.075,245.751,221.881,0.159832,0.155148,25,5621,3
177.217,2.05408,13.2688,-0.167575,-5.21131,148.881,182.463,143.916,-0.448808,0.218482,25,5622,3
212.703,1.36899,15.9178,-0.100228,-3.47785,178.71,218.997,172.53,-0.214318,0.218482,25,5623,3
273.516,0.456921,8.49946,0.298733,-1.27703,252.786,276.558,249.754,0.288463,0.0775741,25,5624,3
293.865,0.153574,9.10489,0.363304,-0.429031,271.656,297.123,268.4,0.361281,0.0775741,25,5625,3
240.475,0.718763,16.6141,-0.0712697,-1.99402,199.988,246.424,194.075,-0.107996,0.109241,25,5626,3
258.341,0.314315,17.8379,-0.0626074,-0.863961,214.872,264.729,208.494,-0.0720732,0.109241,25,5627,3
272.93,0.498475,9.16706,0.298733,-1.26139,253.371,276.558,249.754,0.288463,0.0775741,25,5628,3
293.237,0.167416,9.8209,0.363304,-0.423821,272.284,297.123,268.4,0.361281,0.0775741,25,5629,3
239.346,0.774355,17.9016,-0.0712697,-1.9731,201.117,246.424,194.075,-0.107996,0.109241,25,5630,3
257.129,0.333334,19.2203,-0.0626074,-0.856803,216.084,264.729,208.494,-0.0720732,0.109241,25,5631,3
-170.659,1.7449,-19.8022,-1.41578,-4.89088,-122.41,-1.02598,-115.708,-177.751,0.531966,25,5632,3
-46.4213,3.86576,-5.3677,-1.05601,-10.8172,-33.3414,4.93065,-33.4871,-52.2624,0.531966,25,5633,3
-150.578,2.01613,-24.7962,-1.57626,-5.63153,-90.1508,-0.853127,-81.9947,-159.458,0.5953,25,5634,3
-40.9371,4.26619,-6.74641,-1.1217,-11.9192,-24.4954,6.4507,-25.3872,-47.6177,0.5953,25,5635,3
-169.316,1.9129,-21.3336,-1.41578,-4.82765,-123.753,-1.02598,-115.708,-177.751,0.531966,25,5636,3
-46.0568,4.22583,-5.78336,-1.05601,-10.6817,-33.706,4.93065,-33.4871,-52.2624,0.531966,25,5637,3
-148.892,2.19732,-26.7188,-1.57626,-5.56334,-91.8369,-0.853127,-81.9947,-159.458,0.5953,25,5638,3
-40.478,4.65141,-7.26991,-1.1217,-11.7743,-24.9545,6.4507,-25.3872,-47.6177,0.5953,25,5639,3
46.7037,3.94431,5.39164,-0.667099,-11.0367,33.5658,48.6346,35.8873,-4.91951,0.265983,25,5640,3
108.807,3.17897,12.5781,-0.440408,-8.89795,78.1577,113.311,74.9484,-1.73549,0.265983,25,5641,3
41.2029,4.34538,6.77281,-0.600064,-12.1406,24.6972,43.6282,28.485,-6.81318,0.29765,25,5642,3
95.9912,3.54157,15.789,-0.295367,-9.89408,57.5126,101.645,54.0819,-2.51844,0.29765,25,5643,3
46.3377,4.31152,5.80904,-0.667099,-10.8985,33.9318,48.6346,35.8873,-4.91951,0.265983,25,5644,3
107.953,3.47676,13.5516,-0.440408,-8.78587,79.0115,113.311,74.9484,-1.73549,0.265983,25,5645,3
40.7421,4.73785,7.29825,-0.600064,-11.9929,25.158,43.6282,28.485,-6.81318,0.29765,25,5646,3
94.9171,3.86093,17.0138,-0.295367,-9.77389,58.5867,101.645,54.0819,-2.51844,0.29765,25,5647,3
155.411,2.22806,17.991,-0.31911,-6.2408,111.573,161.854,105.572,-0.761153,0.132991,25,5648,3
186.494,1.40028,21.6228,-0.275319,-3.92793,133.809,194.238,126.218,-0.428484,0.132991,25,5649,3
137.127,2.5365,22.5554,-0.13243,-7.08519,82.1586,145.203,74.8942,-0.944825,0.148825,25,5650,3
164.576,1.65062,27.0729,-0.0854123,-4.60982,98.6002,174.271,89.2078,-0.387566,0.148825,25,5651,3
154.19,2.4397,19.3829,-0.31911,-6.16114,112.794,161.854,105.572,-0.761153,0.132991,25,5652,3
185.028,1.53708,23.295,-0.275319,-3.87644,135.275,194.238,126.218,-0.428484,0.132991,25,5653,3
135.592,2.76455,24.3048,-0.13243,-6.99936,83.6927,145.203,74.8942,-0.944825,0.148825,25,5654,3
162.735,1.79847,29.1721,-0.0854123,-4.55417,100.441,174.271,89.2078,-0.387566,0.148825,25,5655,3
209.82,0.694249,24.3565,-0.262915,-1.95558,150.475,218.543,141.787,-0.298264,0.0664957,25,5656,3
225.379,0.181486,26.1845,-0.266031,-0.523432,161.58,234.756,152.209,-0.272065,0.0664957,25,5657,3
185.178,0.883251,30.4652,-0.0867472,-2.46606,110.936,196.088,100.107,-0.166436,0.0744125,25,5658,3
198.92,0.31474,32.7298,-0.112946,-0.878323,119.16,210.64,107.453,-0.12588,0.0744125,25,5659,3
208.168,0.767441,26.2395,-0.262915,-1.92803,152.126,218.543,141.787,-0.298264,0.0664957,25,5660,3
223.604,0.208674,28.2084,-0.266031,-0.513198,163.355,234.756,152.209,-0.272065,0.0664957,25,5661,3
183.107,0.961921,32.8269,-0.0867472,-2.43645,113.008,196.088,100.107,-0.166436,0.0744125,25,5662,3
196.695,0.342485,35.2667,-0.112946,-0.867881,121.385,210.64,107.453,-0.12588,0.0744125,25,5663,3
-134.23,2.14274,-28.8535,-1.54698,-5.9982,-63.9156,-0.359558,-54.7708,-144.562,0.3214,25,5664,3
-36.4862,4.63531,-7.84287,-1.0902,-12.9637,-17.3725,8.43275,-19.497,-43.8846,0.3214,25,5665,3
-122.441,2.30687,-31.7943,-1.57184,-6.44683,-44.957,0.482249,-35.6261,-133.826,0.337234,25,5666,3
-33.2876,4.86501,-8.60861,-0.96696,-13.5957,-12.3078,10.3562,-15.778,-41.1406,0.337234,25,5667,3
-132.268,2.34389,-31.0904,-1.54698,-5.92249,-65.8773,-0.359558,-54.7708,-144.562,0.3214,25,5668,3
-35.9525,5.06258,-8.45138,-1.0902,-12.8029,-17.9062,8.43275,-19.497,-43.8846,0.3214,25,5669,3
-120.278,2.5163,-34.2608,-1.57184,-6.36801,-47.1201,0.482249,-35.6261,-133.826,0.337234,25,5670,3
-32.7019,5.30657,-9.27651,-0.96696,-13.4295,-12.8936,10.3562,-15.778,-41.1406,0.337234,25,5671,3
36.7428,4.71842,7.87603,-0.602168,-13.1961,17.5485,39.5631,23.2742,-9.14808,0.1607,25,5672,3
85.5889,3.82939,18.3596,-0.324174,-10.7111,40.8459,92.1631,37.8487,-3.9012,0.1607,25,5673,3
33.4985,4.90617,8.73044,-0.440971,-13.711,12.2217,36.6307,19.778,-11.1295,0.168617,25,5674,3
78.0888,3.96415,20.2565,-0.184687,-11.078,28.7225,85.3423,26.8294,-5.54508,0.168617,25,5675,3
36.207,5.15332,8.487,-0.602168,-13.0324,18.0843,39.5631,23.2742,-9.14808,0.1607,25,5676,3
84.34,4.18322,19.7837,-0.324174,-10.5779,42.0948,92.1631,37.8487,-3.9012,0.1607,25,5677,3
32.9044,5.35163,9.40782,-0.440971,-13.5433,12.8158,36.6307,19.778,-11.1295,0.168617,25,5678,3
76.7107,4.32382,21.828,-0.184687,-10.9426,30.1007,85.3423,26.8294,-5.54508,0.168617,25,5679,3
122.264,2.71639,26.2309,-0.177743,-7.60043,58.3391,131.657,50.2832,-1.51472,0.0803501,25,5680,3
146.73,1.73462,31.4978,-0.12683,-4.85723,69.9705,158.009,59.1712,-0.606675,0.0803501,25,5681,3
111.597,2.81741,28.8908,-0.0594784,-7.87311,41.1881,121.942,33.0485,-2.26519,0.0843085,25,5682,3
133.974,1.82131,34.6485,-0.0218075,-5.08961,49.5335,146.381,37.9567,-0.852026,0.0843085,25,5683,3
120.48,2.96903,28.2653,-0.177743,-7.50535,60.1232,131.657,50.2832,-1.51472,0.0803501,25,5684,3
144.588,1.89844,33.94,-0.12683,-4.79557,72.1121,158.009,59.1712,-0.606675,0.0803501,25,5685,3
109.631,3.07286,31.1321,-0.0594784,-7.77696,43.1537,121.942,33.0485,-2.26519,0.0843085,25,5686,3
131.617,1.98648,37.3365,-0.0218075,-5.02745,51.8908,146.381,37.9567,-0.852026,0.0843085,25,5687,3
165.082,0.888831,35.4632,-0.114366,-2.49467,78.6612,177.781,66.0765,-0.22894,0.040175,25,5688,3
177.31,0.271956,38.1215,-0.123901,-0.771766,84.4134,190.962,70.7779,-0.139739,0.040175,25,5689,3
150.772,0.964284,38.9733,-0.0182073,-2.69487,55.792,164.727,42.0476,-0.229328,0.0421542,25,5690,3
161.968,0.332464,41.8651,-0.0443346,-0.930662,59.9414,176.959,44.9811,-0.075129,0.0421542,25,5691,3
162.672,0.976593,38.2119,-0.114366,-2.46164,81.0717,177.781,66.0765,-0.22894,0.040175,25,5692,3
174.72,0.304393,41.0753,-0.123901,-0.759557,87.0038,190.962,70.7779,-0.139739,0.040175,25,5693,3
148.121,1.05187,41.9966,-0.0182073,-2.66191,58.4433,164.727,42.0476,-0.229328,0.0421542,25,5694,3
159.12,0.363669,45.1124,-0.0443346,-0.918917,62.7892,176.959,44.9811,-0.075129,0.0421542,25,5695,3
-113.185,2.43143,-34.1439,-1.59538,-6.79801,-29.9753,1.87701,-21.2214,-125.412,0.174555,25,5696,3
-30.9664,5.08577,-9.15275,-1.12098,-14.2157,-8.66047,12.1169,-13.63,-39.2347,0.174555,25,5697,3
-106.923,2.34804,-35.7526,-1.96392,-6.56385,-19.7919,3.33661,-12.29,-119.725,0.178513,25,5698,3
-29.6215,5.05079,-9.7255,-2.8317,-14.1171,-5.92036,12.4143,-12.4406,-38.3473,0.178513,25,5699,3
-110.863,2.65419,-36.7924,-1.59538,-6.71417,-32.298,1.87701,-21.2214,-125.412,0.174555,25,5700,3
-30.3436,5.54938,-9.86286,-1.12098,-14.0412,-9.28322,12.1169,-13.63,-39.2347,0.174555,25,5701,3
-104.49,2.56249,-38.5261,-1.96392,-6.48313,-22.2242,3.33661,-12.29,-119.725,0.178513,25,5702,3
-28.9601,5.51069,-10.4798,-2.8317,-13.944,-6.58184,12.4143,-12.4406,-38.3473,0.178513,25,5703,3
30.7905,5.07646,9.46311,-0.542244,-14.1904,7.72788,34.1849,17.1995,-13.4082,0.0872773,25,5704,3
72.1708,4.03953,21.7651,-0.178736,-11.2922,19.1269,79.9641,18.9896,-7.83476,0.0872773,25,5705,3
28.5193,5.35248,9.72691,-2.82494,-14.9637,4.81119,32.0154,15.2756,-16.7854,0.0892564,25,5706,3
67.556,4.43288,22.784,-1.82403,-12.3961,12.0236,75.7153,14.5171,-12.4769,0.0892564,25,5707,3
30.1465,5.53972,10.1975,-0.542244,-14.0161,8.37191,34.1849,17.1995,-13.4082,0.0872773,25,5708,3
70.6896,4.40838,23.4541,-0.178736,-11.1534,20.6081,79.9641,18.9896,-7.83476,0.0872773,25,5709,3
27.8562,5.84203,10.483,-2.82494,-14.7794,5.47429,32.0154,15.2756,-16.7854,0.0892564,25,5710,3
66.003,4.84051,24.5547,-1.82403,-12.2427,13.5765,75.7153,14.5171,-12.4769,0.0892564,25,5711,3
103.351,2.81558,30.9159,-0.0263066,-7.87081,28.0061,114.421,20.4409,-3.531,0.0436386,25,5712,3
124.204,1.78565,36.9906,-0.00575912,-4.99296,34.0551,137.45,22.1539,-1.35048,0.0436386,25,5713,3
97.2129,3.07839,32.4502,-0.751755,-8.61029,18.1208,108.833,12.8367,-7.08792,0.0446282,25,5714,3
117.315,1.87688,38.67,-0.216219,-5.24894,23.0671,131.16,12.0327,-3.02718,0.0446282,25,5715,3
101.247,3.07272,33.3149,-0.0263066,-7.77402,30.1099,114.421,20.4409,-3.531,0.0436386,25,5716,3
121.687,1.94956,39.8604,-0.00575912,-4.93127,36.5719,137.45,22.1539,-1.35048,0.0436386,25,5717,3
95.0012,3.3627,34.9721,-0.751755,-8.50328,20.3324,108.833,12.8367,-7.08792,0.0446282,25,5718,3
114.681,2.04975,41.6733,-0.216219,-5.18387,25.7009,131.16,12.0327,-3.02718,0.0446282,25,5719,3
139.866,0.919836,41.5484,-0.00604522,-2.57579,38.6106,154.746,24.0637,-0.338228,0.0218193,25,5720,3
150.286,0.306519,44.6075,-0.0522838,-0.860453,41.5766,166.259,25.6558,-0.105037,0.0218193,25,5721,3
132.572,0.907056,43.1979,0.032471,-2.53503,27.2956,148.037,12.4942,-0.631831,0.0223141,25,5722,3
142.705,0.303804,46.1697,-0.138171,-0.856698,30.1917,159.24,13.8722,-0.353987,0.0223141,25,5723,3
137.04,1.00677,44.7716,-0.00604522,-2.54307,41.4373,154.746,24.0637,-0.338228,0.0218193,25,5724,3
147.252,0.336883,48.0671,-0.0522838,-0.849025,44.6106,166.259,25.6558,-0.105037,0.0218193,25,5725,3
129.633,0.9895,46.5492,0.032471,-2.504,30.2346,148.037,12.4942,-0.631831,0.0223141,25,5726,3
139.566,0.336448,49.7489,-0.138171,-0.844412,33.3306,159.24,13.8722,-0.353987,0.0223141,25,5727,3
-102.485,1.98392,-36.7787,-2.4416,-5.54416,-12.8788,5.09622,-7.24401,-115.657,0.0922591,25,5728,3
-28.7146,4.43599,-10.4551,-5.81057,-12.3984,-3.24123,10.9194,-11.0503,-37.6354,0.0922591,25,5729,3
-99.8202,1.54115,-37.1356,-2.38451,-4.30604,-9.34535,6.59699,-5.02629,-113.121,0.0932817,25,5730,3
-28.0633,3.32835,-10.8871,-7.54231,-9.29835,-1.53767,8.50696,-9.22007,-36.4301,0.0932817,25,5731,3
-99.9938,2.16393,-39.6191,-2.4416,-5.47641,-15.3698,5.09622,-7.24401,-115.657,0.0922591,25,5732,3
-28.0061,4.83969,-11.263,-5.81057,-12.2465,-3.94975,10.9194,-11.0503,-37.6354,0.0922591,25,5733,3
-97.3053,1.68047,-40.0033,-2.38451,-4.2536,-11.8603,6.59699,-5.02629,-113.121,0.0932817,25,5734,3
-27.3256,3.62844,-11.7283,-7.54231,-9.1854,-2.27533,8.50696,-9.22007,-36.4301,0.0932817,25,5735,3
26.5643,5.3147,9.10918,-8.80299,-14.8565,4.3751,29.8303,12.7352,-20.429,0.0461296,25,5736,3
63.2524,5.35421,22.7609,-8.82122,-14.9745,7.80625,71.4186,11.9179,-21.0991,0.0461296,25,5737,3
25.5414,3.94705,8.09512,-14.6672,-11.0192,5.82204,28.4479,8.89482,-20.6464,0.0466408,25,5738,3
60.3071,4.60375,20.8829,-21.789,-12.8227,9.44503,67.8596,8.50862,-28.405,0.0466408,25,5739,3
25.9491,5.79976,9.8107,-8.80299,-14.6739,4.99032,29.8303,12.7352,-20.429,0.0461296,25,5740,3
61.7141,5.84785,24.515,-8.82122,-14.7887,9.34461,71.4186,11.9179,-21.0991,0.0461296,25,5741,3
24.9945,4.29789,8.71871,-14.6672,-10.8871,6.36891,28.4479,8.89482,-20.6464,0.0466408,25,5742,3
58.8997,4.99332,22.4877,-21.789,-12.6761,10.8524,67.8596,8.50862,-28.405,0.0466408,25,5743,3
91.0571,4.58318,33.5044,-6.07199,-12.8332,9.43648,103.091,9.46139,-18.1307,0.0230648,25,5744,3
110.414,3.01923,40.5395,-2.59873,-8.47711,11.6498,124.984,6.58933,-12.1073,0.0230648,25,5745,3
85.1994,5.76946,31.1972,-27.7074,-16.0248,9.22905,96.6849,7.30294,-37.2668,0.0233204,25,5746,3
100.941,7.12838,39.2318,-29.4679,-19.7322,5.40457,116.044,5.96275,-45.1288,0.0233204,25,5747,3
88.7913,5.01568,36.088,-6.07199,-12.6704,11.7022,103.091,9.46139,-18.1307,0.0230648,25,5748,3
107.671,3.31937,43.6684,-2.59873,-8.36415,14.3938,124.984,6.58933,-12.1073,0.0230648,25,5749,3
83.1025,6.22816,33.5882,-27.7074,-15.8521,11.3259,96.6849,7.30294,-37.2668,0.0233204,25,5750,3
98.3042,7.65094,42.239,-29.4679,-19.5355,8.04182,116.044,5.96275,-45.1288,0.0233204,25,5751,3
126.022,1.30845,44.9407,-0.676695,-3.70761,16.5186,142.169,5.59575,-5.90138,0.0115324,25,5752,3
136.129,0.684707,47.6207,-1.61754,-1.95013,20.1042,153.284,8.77274,-7.44193,0.0115324,25,5753,3
112,7.80943,46.8594,-26.5077,-21.5269,-2.1283,131.149,6.07437,-53.8596,0.0116602,25,5754,3
119.568,6.00362,52.9633,-20.0946,-16.3666,-9.5094,142.955,6.59839,-59.5896,0.0116602,25,5755,3
122.973,1.46085,48.4173,-0.676695,-3.65025,19.5675,142.169,5.59575,-5.90138,0.0115324,25,5756,3
132.902,0.771021,51.3002,-1.61754,-1.91765,23.331,153.284,8.77274,-7.44193,0.0115324,25,5757,3
108.843,8.32222,50.4596,-26.5077,-21.3339,1.02902,131.149,6.07437,-53.8596,0.0116602,25,5758,3
115.963,6.27752,57.0733,-20.0946,-16.2636,-5.90503,142.955,6.59839,-59.5896,0.0116602,25,5759,3
-250.951,0.0202152,-0.00624284,-1.6153,-0.13649,-250.91,-1.61517,-250.909,-250.952,0.00167713,25,5760,3
-68.2553,0.043115,-0.00170589,-1.10911,-0.290867,-68.2441,-0.183943,-68.2445,-69.1802,0.00167713,25,5761,3
-250.88,0.0316157,-0.0150124,-1.61512,-0.213375,-250.781,-1.61482,-250.779,-250.882,0.00266631,25,5762,3
-68.2357,0.0673575,-0.00411145,-1.10918,-0.454416,-68.2086,-0.170956,-68.2096,-69.173,0.00266631,25,5763,3
-250.951,0.0247607,-0.00757222,-1.6153,-0.135742,-250.911,-1.61518,-250.909,-250.952,0.00167713,25,5764,3
-68.2552,0.0527004,-0.0020686,-1.10911,-0.289287,-68.2442,-0.183942,-68.2445,-69.1802,0.00167713,25,5765,3
-250.878,0.038653,-0.0182047,-1.61512,-0.212209,-250.782,-1.61482,-250.779,-250.882,0.00266631,25,5766,3
-68.2354,0.0822876,-0.00498421,-1.10918,-0.451947,-68.2089,-0.170956,-68.2096,-69.173,0.00266631,25,5767,3
68.6291,0.0439179,0.00171061,-0.607235,-0.296304,68.6178,68.6294,68.6192,-0.608877,0.000838566,25,5768,3
159.922,0.0357213,0.00399103,-0.305329,-0.241026,159.896,159.923,159.896,-0.305739,0.000838566,25,5769,3
68.6095,0.0686676,0.00412104,-0.60706,-0.463199,68.5823,68.6101,68.5856,-0.611001,0.00133315,25,5770,3
159.876,0.0558214,0.00959417,-0.30522,-0.376614,159.813,159.878,159.813,-0.306201,0.00133315,25,5771,3
68.629,0.0536847,0.00207451,-0.607236,-0.294695,68.618,68.6294,68.6192,-0.608878,0.000838566,25,5772,3
159.922,0.0436805,0.00483999,-0.305328,-0.239715,159.896,159.923,159.896,-0.305738,0.000838566,25,5773,3
68.6092,0.083871,0.00499602,-0.60706,-0.460684,68.5826,68.6101,68.5856,-0.611001,0.00133315,25,5774,3
159.876,0.068203,0.0116319,-0.305221,-0.374566,159.814,159.878,159.813,-0.306201,0.00133315,25,5775,3
228.448,0.025477,0.00570203,-0.128623,-0.171966,228.411,228.449,228.41,-0.128764,0.000419283,25,5776,3
274.176,0.0164686,0.0068273,-0.049571,-0.111225,274.131,274.177,274.13,-0.0496223,0.000419283,25,5777,3
228.383,0.0398099,0.0136762,-0.128872,-0.268644,228.293,228.385,228.291,-0.129207,0.000666576,25,5778,3
274.097,0.0257625,0.0163875,-0.0502437,-0.173912,273.989,274.1,273.987,-0.0503645,0.000666576,25,5779,3
228.448,0.0311815,0.00691591,-0.128623,-0.171028,228.411,228.449,228.41,-0.128763,0.000419283,25,5780,3
274.175,0.0201878,0.00828094,-0.0495691,-0.110614,274.131,274.177,274.13,-0.0496204,0.000419283,25,5781,3
228.382,0.0486594,0.016581,-0.128872,-0.267179,228.294,228.385,228.291,-0.129207,0.000666576,25,5782,3
274.096,0.0315101,0.019871,-0.0502438,-0.172959,273.99,274.1,273.987,-0.0503645,0.000666576,25,5783,3
308.497,0.00871009,0.00764514,-0.0128778,-0.0588944,308.446,308.498,308.445,-0.0128915,0.000209641,25,5784,3
331.393,0.00299707,0.00818781,-0.00186569,-0.0203441,331.339,331.394,331.338,-0.00186879,0.000209641,25,5785,3
308.408,0.013666,0.0184596,-0.0137744,-0.0923036,308.287,308.411,308.284,-0.0138053,0.000333288,25,5786,3
331.298,0.00466656,0.0197665,-0.00213514,-0.0316112,331.168,331.301,331.165,-0.00214046,0.000333288,25,5787,3
308.496,0.010712,0.00927555,-0.0128831,-0.0585624,308.447,308.498,308.445,-0.0128969,0.000209641,25,5788,3
331.392,0.00373752,0.00993308,-0.00186489,-0.0202171,331.339,331.394,331.338,-0.00186798,0.000209641,25,5789,3
308.407,0.0167342,0.0223835,-0.013774,-0.0917934,308.288,308.411,308.284,-0.0138049,0.000333288,25,5790,3
331.297,0.00574593,0.0239875,-0.00213332,-0.0314323,331.169,331.301,331.165,-0.00213864,0.000333288,25,5791,3
-250.698,0.0495075,-0.0371935,-1.6158,-0.333992,-250.453,-1.61507,-250.448,-250.704,0.00830233,25,5792,3
-68.1861,0.105774,-0.010195,-1.10928,-0.713337,-68.1189,-0.140948,-68.121,-69.1523,0.00830233,25,5793,3
-250.358,0.0722973,-0.0787056,-1.61445,-0.48866,-249.839,-1.61289,-249.828,-250.369,0.0122607,25,5794,3
-68.0929,0.154363,-0.0214613,-1.10793,-1.04224,-67.9515,-0.0848245,-67.9562,-69.1113,0.0122607,25,5795,3
-250.696,0.0604785,-0.0451482,-1.61581,-0.332181,-250.456,-1.61507,-250.448,-250.704,0.00830233,25,5796,3
-68.1854,0.129134,-0.0123639,-1.10928,-0.709481,-68.1197,-0.140948,-68.121,-69.1523,0.00830233,25,5797,3
-250.352,0.0886142,-0.0955205,-1.61445,-0.485966,-249.844,-1.61289,-249.828,-250.369,0.0122607,25,5798,3
-68.0914,0.188846,-0.0260238,-1.10793,-1.03655,-67.953,-0.0848245,-67.9562,-69.1113,0.0122607,25,5799,3
68.5596,0.107695,0.0102476,-0.60705,-0.726354,68.492,68.5611,68.5003,-0.616817,0.00415116,25,5800,3
159.761,0.0875437,0.0237938,-0.304829,-0.590445,159.604,159.764,159.603,-0.30726,0.00415116,25,5801,3
68.4661,0.157216,0.0215062,-0.608432,-1.06144,68.3244,68.4693,68.3418,-0.629114,0.00613036,25,5802,3
159.543,0.127953,0.0501882,-0.306771,-0.864058,159.212,159.55,159.21,-0.311931,0.00613036,25,5803,3
68.5588,0.131499,0.0124304,-0.60705,-0.722424,68.4928,68.5611,68.5003,-0.616817,0.00415116,25,5804,3
159.759,0.106895,0.0288738,-0.304829,-0.58725,159.605,159.764,159.603,-0.30726,0.00415116,25,5805,3
68.4646,0.192315,0.0260855,-0.608432,-1.05564,68.3259,68.4693,68.3418,-0.629114,0.00613036,25,5806,3
159.539,0.15658,0.060884,-0.306771,-0.859332,159.216,159.55,159.21,-0.311931,0.00613036,25,5807,3
228.218,0.06239,0.0339013,-0.128335,-0.420831,227.994,228.223,227.99,-0.129164,0.00207558,25,5808,3
273.899,0.0403835,0.0406008,-0.0499424,-0.27238,273.631,273.905,273.626,-0.0502405,0.00207558,25,5809,3
227.906,0.0913508,0.0717919,-0.13139,-0.617097,227.433,227.917,227.424,-0.133158,0.00306518,25,5810,3
273.526,0.0591469,0.086209,-0.052608,-0.399772,272.957,273.539,272.945,-0.053245,0.00306518,25,5811,3
228.215,0.0761933,0.0411424,-0.128335,-0.418553,227.997,228.223,227.99,-0.129164,0.00207558,25,5812,3
273.896,0.049314,0.0492737,-0.0499424,-0.270906,273.634,273.905,273.626,-0.0502405,0.00207558,25,5813,3
227.901,0.111856,0.0870868,-0.13139,-0.613711,227.438,227.917,227.424,-0.133158,0.00306518,25,5814,3
273.519,0.0724945,0.104587,-0.052608,-0.397568,272.964,273.539,272.945,-0.053245,0.00306518,25,5815,3
308.185,0.0214487,0.0456571,-0.0136445,-0.14464,307.884,308.192,307.878,-0.0137202,0.00103779,25,5816,3
331.059,0.00733596,0.0488789,-0.000887173,-0.0494812,330.737,331.067,330.729,-0.000899137,0.00103779,25,5817,3
307.767,0.0310199,0.096854,-0.0138718,-0.209986,307.129,307.782,307.114,-0.0140302,0.00153259,25,5818,3
330.614,0.00987847,0.102934,0.00251104,-0.0675252,329.935,330.63,329.92,0.00248759,0.00153259,25,5819,3
308.182,0.0261827,0.0554126,-0.0136446,-0.143858,307.888,308.192,307.878,-0.0137203,0.00103779,25,5820,3
331.056,0.00895916,0.0593776,-0.000887275,-0.0492131,330.74,331.067,330.729,-0.000899239,0.00103779,25,5821,3
307.76,0.0381243,0.11755,-0.0138718,-0.208813,307.136,307.782,307.114,-0.0140302,0.00153259,25,5822,3
330.607,0.012351,0.125112,0.00251103,-0.0671169,329.942,330.63,329.92,0.00248759,0.00153259,25,5823,3
-249.552,0.108132,-0.17683,-1.61811,-0.73058,-248.386,-1.61457,-248.363,-249.579,0.0363966,25,5824,3
-67.8725,0.23076,-0.0485828,-1.10822,-1.55753,-67.5524,0.0252236,-67.5627,-68.9956,0.0363966,25,5825,3
-248.089,0.150455,-0.355785,-1.63049,-1.02219,-245.741,-1.62348,-245.695,-248.142,0.0522301,25,5826,3
-67.4633,0.330622,-0.0989752,-1.10017,-2.23744,-66.8113,0.21191,-66.8331,-68.7536,0.0522301,25,5827,3
-249.539,0.132444,-0.214793,-1.61811,-0.726566,-248.399,-1.61457,-248.363,-249.579,0.0363966,25,5828,3
-67.869,0.282137,-0.0589125,-1.10822,-1.54904,-67.5559,0.0252236,-67.5627,-68.9956,0.0363966,25,5829,3
-248.063,0.186103,-0.432399,-1.63049,-1.01631,-245.767,-1.62348,-245.695,-248.142,0.0522301,25,5830,3
-67.4562,0.406125,-0.11994,-1.10017,-2.22497,-66.8184,0.21191,-66.8331,-68.7536,0.0522301,25,5831,3
68.2453,0.234706,0.0486591,-0.60839,-1.5844,67.9245,68.2525,67.9639,-0.655077,0.0181983,25,5832,3
159.029,0.191141,0.112855,-0.306996,-1.29029,158.285,159.046,158.28,-0.318676,0.0181983,25,5833,3
67.8375,0.335785,0.0986814,-0.612844,-2.27252,67.1871,67.8523,67.2683,-0.708879,0.0261151,25,5834,3
158.081,0.27325,0.22942,-0.314018,-1.85013,156.569,158.115,156.559,-0.338091,0.0261151,25,5835,3
68.2417,0.28704,0.0590388,-0.60839,-1.57576,67.928,68.2525,67.9639,-0.655077,0.0181983,25,5836,3
159.021,0.233754,0.136995,-0.306996,-1.28326,158.293,159.046,158.28,-0.318676,0.0181983,25,5837,3
67.8304,0.412515,0.119703,-0.612844,-2.25986,67.1942,67.8523,67.2683,-0.708879,0.0261151,25,5838,3
158.065,0.335957,0.278371,-0.314018,-1.83978,156.585,158.115,156.559,-0.338091,0.0261151,25,5839,3
227.172,0.136834,0.161206,-0.133784,-0.923731,226.109,227.196,226.089,-0.13781,0.00909915,25,5840,3
272.644,0.0889244,0.193589,-0.0542558,-0.6004,271.367,272.673,271.34,-0.0557191,0.00909915,25,5841,3
225.824,0.193954,0.327717,-0.132028,-1.3147,223.663,225.873,223.622,-0.140226,0.0130575,25,5842,3
271.042,0.122472,0.390809,-0.0379223,-0.83239,268.463,271.1,268.408,-0.0407428,0.0130575,25,5843,3
227.16,0.167352,0.195675,-0.133784,-0.918693,226.12,227.196,226.089,-0.13781,0.00909915,25,5844,3
272.63,0.108787,0.235033,-0.0542558,-0.597121,271.381,272.673,271.34,-0.0557191,0.00909915,25,5845,3
225.8,0.238937,0.397755,-0.132028,-1.30728,223.687,225.873,223.622,-0.140226,0.0130575,25,5846,3
271.013,0.151591,0.474714,-0.0379223,-0.827583,268.492,271.1,268.408,-0.0407428,0.0130575,25,5847,3
306.776,0.0469828,0.217537,-0.0114495,-0.317519,305.341,306.808,305.309,-0.0118172,0.00454957,25,5848,3
329.552,0.0151521,0.232285,0.0132138,-0.103067,328.018,329.587,327.984,0.013163,0.00454957,25,5849,3
304.992,0.0598073,0.434888,0.0191474,-0.409949,302.121,305.057,302.057,0.0185404,0.00652877,25,5850,3
327.656,0.0134854,0.459744,0.0535294,-0.0981349,324.618,327.724,324.55,0.0534256,0.00652877,25,5851,3
306.76,0.0575736,0.264263,-0.0114495,-0.31577,305.356,306.808,305.309,-0.0118172,0.00454957,25,5852,3
329.535,0.0187819,0.282548,0.0132138,-0.102468,328.035,329.587,327.984,0.013163,0.00454957,25,5853,3
304.96,0.0751403,0.528875,0.0191474,-0.407417,302.153,305.057,302.057,0.0185404,0.00652877,25,5854,3
327.622,0.0187747,0.560028,0.0535293,-0.0972616,324.652,327.724,324.55,0.0534256,0.00652877,25,5855,3
-244.689,0.223446,-0.765862,-1.65033,-1.51456,-239.633,-1.63431,-239.535,-244.803,0.151961,25,5856,3
-66.5311,0.482015,-0.212331,-1.09101,-3.2576,-65.1319,0.536719,-65.1841,-68.1066,0.151961,25,5857,3
-238.654,0.289306,-1.51015,-1.83141,-1.98883,-228.677,-1.8016,-228.482,-238.879,0.215295,25,5858,3
-64.8492,0.697783,-0.429377,-1.15179,-4.74154,-62.0174,1.01366,-62.1477,-66.8844,0.215295,25,5859,3
-244.633,0.275251,-0.931311,-1.65033,-1.506,-239.689,-1.63431,-239.535,-244.803,0.151961,25,5860,3
-66.5158,0.590687,-0.257442,-1.09101,-3.23966,-65.1472,0.536719,-65.1841,-68.1066,0.151961,25,5861,3
-238.543,0.365334,-1.83886,-1.83141,-1.97627,-228.788,-1.8016,-228.482,-238.879,0.215295,25,5862,3
-64.818,0.863366,-0.521294,-1.15179,-4.7142,-62.0486,1.01366,-62.1477,-66.8844,0.215295,25,5863,3
66.903,0.490156,0.211615,-0.621816,-3.31283,65.5078,66.9347,65.6886,-0.834277,0.0759804,25,5864,3
155.905,0.399803,0.492435,-0.328569,-2.7029,152.657,155.978,152.638,-0.382616,0.0759804,25,5865,3
65.2237,0.713312,0.427039,-0.554138,-4.84613,62.4062,65.2875,62.8189,-1.03072,0.107648,25,5866,3
152.004,0.565937,0.989375,-0.179819,-3.85254,145.475,152.151,145.443,-0.295239,0.107648,25,5867,3
66.8877,0.60073,0.256806,-0.621816,-3.29457,65.5231,66.9347,65.6886,-0.834277,0.0759804,25,5868,3
155.869,0.490231,0.597805,-0.328569,-2.68797,152.693,155.978,152.638,-0.382616,0.0759804,25,5869,3
65.1926,0.88228,0.518818,-0.554138,-4.81823,62.4373,65.2875,62.8189,-1.03072,0.107648,25,5870,3
151.932,0.702457,1.20247,-0.179819,-3.83,145.547,152.151,145.443,-0.295239,0.107648,25,5871,3
222.721,0.285512,0.702108,-0.140678,-1.93167,218.089,222.825,218.003,-0.159462,0.0379902,25,5872,3
267.326,0.182711,0.838659,-0.0259876,-1.23857,261.79,267.45,261.672,-0.0326347,0.0379902,25,5873,3
217.189,0.382873,1.39755,0.0611439,-2.61856,207.962,217.397,207.79,0.0256068,0.0538238,25,5874,3
260.74,0.224076,1.65263,0.19515,-1.54858,249.823,260.986,249.587,0.184598,0.0538238,25,5875,3
222.67,0.350554,0.852761,-0.140678,-1.92093,218.14,222.825,218.003,-0.159462,0.0379902,25,5876,3
267.264,0.22511,1.01951,-0.0259876,-1.23157,261.852,267.45,261.672,-0.0326347,0.0379902,25,5877,3
217.086,0.479155,1.69977,0.0611439,-2.60267,208.065,217.397,207.79,0.0256068,0.0538238,25,5878,3
260.618,0.28559,2.01203,0.19515,-1.53842,249.945,260.986,249.587,0.184598,0.0538238,25,5879,3
300.819,0.0920215,0.937916,0.0572082,-0.62751,294.625,300.959,294.487,0.0557108,0.0189951,25,5880,3
323.18,0.0235612,1.00028,0.1189,-0.166417,316.569,323.328,316.421,0.118675,0.0189951,25,5881,3
293.457,0.0895765,1.83416,0.280866,-0.642539,281.333,293.73,281.063,0.278459,0.0269119,25,5882,3
315.308,-0.00706277,1.94659,0.332781,0.00854646,302.434,315.597,302.148,0.330161,0.0269119,25,5883,3
300.75,0.114568,1.14129,0.0572082,-0.623787,294.694,300.959,294.487,0.0557108,0.0189951,25,5884,3
323.105,0.0311822,1.21847,0.1189,-0.165159,316.643,323.328,316.421,0.118675,0.0189951,25,5885,3
293.321,0.121715,2.23515,0.280866,-0.637233,281.469,293.73,281.063,0.278459,0.0269119,25,5886,3
315.163,0.00394078,2.37421,0.332781,0.0103632,302.579,315.597,302.148,0.330161,0.0269119,25,5887,3
-224.454,0.462551,-3.17245,-1.84793,-3.11881,-203.511,-1.7565,-203.13,-224.927,0.620593,25,5888,3
-61.0095,0.981792,-0.873833,-1.14883,-6.62075,-55.244,1.85108,-55.603,-63.6504,0.620593,25,5889,3
-199.503,0.667488,-6.1898,-1.57028,-4.46582,-158.696,-1.32493,-158.019,-200.425,0.873929,25,5890,3
-54.2461,1.36017,-1.68672,-1.09957,-9.13689,-43.1262,3.31703,-44.0323,-57.7567,0.873929,25,5891,3
-224.222,0.564504,-3.85795,-1.84793,-3.10197,-203.744,-1.7565,-203.13,-224.927,0.620593,25,5892,3
-60.9458,1.19848,-1.06164,-1.14883,-6.58498,-55.3078,1.85108,-55.603,-63.6504,0.620593,25,5893,3
-199.054,0.803426,-7.51006,-1.57028,-4.44338,-159.144,-1.32493,-158.019,-200.425,0.873929,25,5894,3
-54.124,1.64898,-2.04653,-1.09957,-9.08921,-43.2484,3.31703,-44.0323,-57.7567,0.873929,25,5895,3
61.3605,0.999779,0.875287,-0.561027,-6.74186,55.5848,61.5015,56.577,-1.69426,0.310296,25,5896,3
142.993,0.814279,2.03616,-0.190504,-5.49114,129.556,143.296,129.557,-0.495453,0.310296,25,5897,3
54.5643,1.38415,1.69293,-0.617072,-9.29861,43.4034,54.8893,45.5802,-3.11891,0.436965,25,5898,3
127.14,1.13653,3.94568,-0.329553,-7.62898,101.128,127.728,101.286,-1.07573,0.436965,25,5899,3
61.2966,1.22038,1.0636,-0.561027,-6.70544,55.6487,61.5015,56.577,-1.69426,0.310296,25,5900,3
142.844,0.994003,2.47463,-0.190504,-5.46147,129.704,143.296,129.557,-0.495453,0.310296,25,5901,3
54.4417,1.67825,2.05408,-0.617072,-9.25006,43.526,54.8893,45.5802,-3.11891,0.436965,25,5902,3
126.854,1.37604,4.78735,-0.329553,-7.58944,101.413,127.728,101.286,-1.07573,0.436965,25,5903,3
204.296,0.582101,2.899,0.0540188,-3.92552,185.161,204.727,184.838,-0.054076,0.155148,25,5904,3
245.235,0.377045,3.46555,0.199484,-2.54253,222.357,245.751,221.881,0.159832,0.155148,25,5905,3
181.624,0.82677,5.63512,-0.167575,-5.54016,144.474,182.463,143.916,-0.448808,0.218482,25,5906,3
217.99,0.553348,6.76017,-0.100228,-3.6964,173.423,218.997,172.53,-0.214318,0.218482,25,5907,3
204.084,0.71061,3.52422,0.0540188,-3.90431,185.374,204.727,184.838,-0.054076,0.155148,25,5908,3
244.981,0.460233,4.21427,0.199484,-2.52879,222.611,245.751,221.881,0.159832,0.155148,25,5909,3
181.216,0.997933,6.83705,-0.167575,-5.5119,144.882,182.463,143.916,-0.448808,0.218482,25,5910,3
217.5,0.664187,8.20202,-0.100228,-3.6781,173.913,218.997,172.53,-0.214318,0.218482,25,5911,3
275.979,0.199005,3.88591,0.298733,-1.34164,250.322,276.558,249.754,0.288463,0.0775741,25,5912,3
296.504,0.0669234,4.16238,0.363304,-0.450748,269.017,297.123,268.4,0.361281,0.0775741,25,5913,3
245.292,0.315938,7.60263,-0.0712697,-2.09593,195.171,246.424,194.075,-0.107996,0.109241,25,5914,3
263.513,0.139725,8.1626,-0.0626074,-0.90868,209.7,264.729,208.494,-0.0720732,0.109241,25,5915,3
275.694,0.242811,4.72674,0.298733,-1.3344,250.607,276.558,249.754,0.288463,0.0775741,25,5916,3
296.198,0.0815163,5.06418,0.363304,-0.448338,269.323,297.123,268.4,0.361281,0.0775741,25,5917,3
244.741,0.374543,9.22419,-0.0712697,-2.08625,195.722,246.424,194.075,-0.107996,0.109241,25,5918,3
262.922,0.159776,9.90372,-0.0626074,-0.90537,210.291,264.729,208.494,-0.0720732,0.109241,25,5919,3
-176.401,0.757205,-9.06271,-1.41578,-5.13731,-116.668,-1.02598,-115.708,-177.751,0.531966,25,5920,3
-47.9776,1.68115,-2.45639,-1.05601,-11.3635,-31.7851,4.93065,-33.4871,-52.2624,0.531966,25,5921,3
-157.768,0.87873,-11.3463,-1.57626,-5.91665,-82.9616,-0.853127,-81.9947,-159.458,0.5953,25,5922,3
-42.8931,1.85888,-3.0869,-1.1217,-12.5225,-22.5395,6.4507,-25.3872,-47.6177,0.5953,25,5923,3
-175.746,0.934315,-10.9915,-1.41578,-5.10807,-117.323,-1.02598,-115.708,-177.751,0.531966,25,5924,3
-47.7999,2.06074,-2.9799,-1.05601,-11.3008,-31.9628,4.93065,-33.4871,-52.2624,0.531966,25,5925,3
-156.946,1.06975,-13.7679,-1.57626,-5.88512,-83.7836,-0.853127,-81.9947,-159.458,0.5953,25,5926,3
-42.6692,2.26499,-3.74623,-1.1217,-12.4555,-22.7633,6.4507,-25.3872,-47.6177,0.5953,25,5927,3
48.267,1.71536,2.46738,-0.667099,-11.5941,32.0025,48.6346,35.8873,-4.91951,0.265983,25,5928,3
112.454,1.38198,5.75619,-0.440408,-9.34717,74.5108,113.311,74.9484,-1.73549,0.265983,25,5929,3
43.1666,1.89337,3.09902,-0.600064,-12.7551,22.7335,43.6282,28.485,-6.81318,0.29765,25,5930,3
100.569,1.54328,7.2246,-0.295367,-10.3949,52.9349,101.645,54.0819,-2.51844,0.29765,25,5931,3
48.0885,2.10249,2.99309,-0.667099,-11.5302,32.181,48.6346,35.8873,-4.91951,0.265983,25,5932,3
112.037,1.69591,6.98236,-0.440408,-9.29534,74.9271,113.311,74.9484,-1.73549,0.265983,25,5933,3
42.9419,2.30711,3.7608,-0.600064,-12.6868,22.9582,43.6282,28.485,-6.81318,0.29765,25,5934,3
100.045,1.87995,8.7672,-0.295367,-10.3393,53.4585,101.645,54.0819,-2.51844,0.29765,25,5935,3
160.627,0.967726,8.23356,-0.31911,-6.55556,106.357,161.854,105.572,-0.761153,0.132991,25,5936,3
192.764,0.607068,9.89596,-0.275319,-4.12564,127.539,194.238,126.218,-0.428484,0.132991,25,5937,3
143.666,1.10551,10.3208,-0.13243,-7.44389,75.6191,145.203,74.8942,-0.944825,0.148825,25,5938,3
172.426,0.719568,12.3881,-0.0854123,-4.84327,90.7509,174.271,89.2078,-0.387566,0.148825,25,5939,3
160.032,1.19085,9.9867,-0.31911,-6.51872,106.952,161.854,105.572,-0.761153,0.132991,25,5940,3
192.049,0.751292,12.0021,-0.275319,-4.10183,128.254,194.238,126.218,-0.428484,0.132991,25,5941,3
142.918,1.34592,12.5241,-0.13243,-7.4042,76.367,145.203,74.8942,-0.944825,0.148825,25,5942,3
171.528,0.875436,15.0321,-0.0854123,-4.81753,91.6485,174.271,89.2078,-0.387566,0.148825,25,5943,3
216.882,0.299394,11.1473,-0.262915,-2.05345,143.413,218.543,141.787,-0.298264,0.0664957,25,5944,3
232.971,0.075882,11.9841,-0.266031,-0.54878,153.988,234.756,152.209,-0.272065,0.0664957,25,5945,3
194.011,0.385176,13.9406,-0.0867472,-2.59099,102.104,196.088,100.107,-0.166436,0.0744125,25,5946,3
208.409,0.13734,14.977,-0.112946,-0.922849,109.671,210.64,107.453,-0.12588,0.0744125,25,5947,3
216.077,0.376554,13.5189,-0.262915,-2.04071,144.218,218.543,141.787,-0.298264,0.0664957,25,5948,3
232.105,0.104545,14.5332,-0.266031,-0.544048,154.853,234.756,152.209,-0.272065,0.0664957,25,5949,3
193.002,0.468111,16.9152,-0.0867472,-2.57729,103.113,196.088,100.107,-0.166436,0.0744125,25,5950,3
207.325,0.166589,18.1721,-0.112946,-0.91802,110.755,210.64,107.453,-0.12588,0.0744125,25,5951,3
-142.596,0.931374,-13.203,-1.54698,-6.30097,-55.55,-0.359558,-54.7708,-144.562,0.3214,25,5952,3
-38.7601,2.01714,-3.58862,-1.0902,-13.6189,-15.0986,8.43275,-19.497,-43.8846,0.3214,25,5953,3
-131.66,1.00483,-14.5481,-1.57184,-6.77301,-35.7389,0.482249,-35.6261,-133.826,0.337234,25,5954,3
-35.7835,2.11914,-3.93901,-0.96696,-14.2836,-9.81195,10.3562,-15.778,-41.1406,0.337234,25,5955,3
-141.639,1.14343,-16.0204,-1.54698,-6.26596,-56.5064,-0.359558,-54.7708,-144.562,0.3214,25,5956,3
-38.4999,2.46758,-4.35503,-1.0902,-13.5446,-15.3588,8.43275,-19.497,-43.8846,0.3214,25,5957,3
-130.605,1.22561,-17.6546,-1.57184,-6.73655,-36.7935,0.482249,-35.6261,-133.826,0.337234,25,5958,3
-35.4979,2.58464,-4.78021,-0.96696,-14.2067,-10.0975,10.3562,-15.778,-41.1406,0.337234,25,5959,3
39.0263,2.05332,3.60384,-0.602168,-13.8631,15.265,39.5631,23.2742,-9.14808,0.1607,25,5960,3
90.9118,1.66618,8.40083,-0.324174,-11.2523,35.5229,92.1631,37.8487,-3.9012,0.1607,25,5961,3
36.0297,2.13702,3.99474,-0.440971,-14.4047,9.69051,36.6307,19.778,-11.1295,0.168617,25,5962,3
83.9618,1.72677,9.26871,-0.184687,-11.6385,22.8496,85.3423,26.8294,-5.54508,0.168617,25,5963,3
38.7651,2.5118,4.37334,-0.602168,-13.7874,15.5262,39.5631,23.2742,-9.14808,0.1607,25,5964,3
90.303,2.03919,10.1945,-0.324174,-11.1908,36.1318,92.1631,37.8487,-3.9012,0.1607,25,5965,3
35.7401,2.60663,4.84789,-0.440971,-14.3272,9.98011,36.6307,19.778,-11.1295,0.168617,25,5966,3
83.2899,2.10594,11.248,-0.184687,-11.5759,23.5215,85.3423,26.8294,-5.54508,0.168617,25,5967,3
129.869,1.18142,12.0027,-0.177743,-7.98434,50.734,131.657,50.2832,-1.51472,0.0803501,25,5968,3
155.862,0.753694,14.413,-0.12683,-5.10231,60.8382,158.009,59.1712,-0.606675,0.0803501,25,5969,3
119.973,1.2273,13.2195,-0.0594784,-8.27147,32.8119,121.942,33.0485,-2.26519,0.0843085,25,5970,3
144.019,0.793384,15.8541,-0.0218075,-5.34714,39.4879,146.381,37.9567,-0.852026,0.0843085,25,5971,3
129,1.44776,14.5649,-0.177743,-7.94036,51.6037,131.657,50.2832,-1.51472,0.0803501,25,5972,3
154.818,0.926387,17.4888,-0.12683,-5.07379,61.8823,158.009,59.1712,-0.606675,0.0803501,25,5973,3
119.015,1.49661,16.0424,-0.0594784,-8.22701,33.7701,121.942,33.0485,-2.26519,0.0843085,25,5974,3
142.87,0.967501,19.2395,-0.0218075,-5.31839,40.6371,146.381,37.9567,-0.852026,0.0843085,25,5975,3
175.364,0.385066,16.2278,-0.114366,-2.62014,68.3792,177.781,66.0765,-0.22894,0.040175,25,5976,3
188.363,0.116166,17.4446,-0.123901,-0.809992,73.3607,190.962,70.7779,-0.139739,0.040175,25,5977,3
162.071,0.420012,17.833,-0.0182073,-2.83121,44.4925,164.727,42.0476,-0.229328,0.0421542,25,5978,3
174.106,0.144512,19.1563,-0.0443346,-0.97764,47.8035,176.959,44.9811,-0.075129,0.0421542,25,5979,3
174.189,0.477586,19.6897,-0.114366,-2.60487,69.5544,177.781,66.0765,-0.22894,0.040175,25,5980,3
187.1,0.150362,21.1648,-0.123901,-0.804346,74.6235,190.962,70.7779,-0.139739,0.040175,25,5981,3
160.779,0.512342,21.6408,-0.0182073,-2.81597,45.785,164.727,42.0476,-0.229328,0.0421542,25,5982,3
172.718,0.177409,23.2463,-0.0443346,-0.972209,49.1919,176.959,44.9811,-0.075129,0.0421542,25,5983,3
-123.085,1.05849,-15.6233,-1.59538,-7.14174,-20.076,1.87701,-21.2214,-125.412,0.174555,25,5984,3
-33.62,2.2147,-4.18799,-1.12098,-14.9347,-6.00683,12.1169,-13.63,-39.2347,0.174555,25,5985,3
-117.288,1.02238,-16.3593,-1.96392,-6.8958,-9.42617,3.33661,-12.29,-119.725,0.178513,25,5986,3
-32.4412,2.19962,-4.45017,-2.8317,-14.8312,-3.10065,12.4143,-12.4406,-38.3473,0.178513,25,5987,3
-121.952,1.29332,-18.9591,-1.59538,-7.10297,-21.2084,1.87701,-21.2214,-125.412,0.174555,25,5988,3
-33.3164,2.70345,-5.08236,-1.12098,-14.854,-6.31043,12.1169,-13.63,-39.2347,0.174555,25,5989,3
-116.103,1.24846,-19.8525,-1.96392,-6.85848,-10.612,3.33661,-12.29,-119.725,0.178513,25,5990,3
-32.1188,2.68446,-5.40015,-2.8317,-14.7512,-3.42313,12.4143,-12.4406,-38.3473,0.178513,25,5991,3
33.5341,2.2105,4.32993,-0.542244,-14.9081,4.98427,34.1849,17.1995,-13.4082,0.0872773,25,5992,3
78.4811,1.75892,9.95884,-0.178736,-11.8633,12.8166,79.9641,18.9896,-7.83476,0.0872773,25,5993,3
31.3393,2.33036,4.45014,-2.82494,-15.7204,1.9912,32.0154,15.2756,-16.7854,0.0892564,25,5994,3
74.1614,1.92934,10.424,-1.82403,-13.0227,5.41815,75.7153,14.5171,-12.4769,0.0892564,25,5995,3
33.2202,2.69887,5.25486,-0.542244,-14.8275,5.29824,34.1849,17.1995,-13.4082,0.0872773,25,5996,3
77.759,2.14776,12.0861,-0.178736,-11.7991,13.5387,79.9641,18.9896,-7.83476,0.0872773,25,5997,3
31.016,2.84646,5.40246,-2.82494,-15.6352,2.31447,32.0154,15.2756,-16.7854,0.0892564,25,5998,3
73.4044,2.35907,12.6542,-1.82403,-12.9518,6.17522,75.7153,14.5171,-12.4769,0.0892564,25,5999,3
112.314,1.22596,14.1459,-0.0263066,-8.26886,19.0428,114.421,20.4409,-3.531,0.0436386,25,6000,3
134.928,0.777264,16.9257,-0.00575912,-5.24539,23.3305,137.45,22.1539,-1.35048,0.0436386,25,6001,3
106.621,1.33946,14.8465,-0.751755,-9.04541,8.71287,108.833,12.8367,-7.08792,0.0446282,25,6002,3
128.526,0.816796,17.6929,-0.216219,-5.51424,11.8558,131.16,12.0327,-3.02718,0.0446282,25,6003,3
111.289,1.49704,17.1674,-0.0263066,-8.22411,20.0684,114.421,20.4409,-3.531,0.0436386,25,6004,3
133.701,0.950059,20.5402,-0.00575912,-5.21686,24.5575,137.45,22.1539,-1.35048,0.0436386,25,6005,3
105.543,1.63918,18.0228,-0.751755,-8.99592,9.79107,108.833,12.8367,-7.08792,0.0446282,25,6006,3
127.242,0.999046,21.4755,-0.216219,-5.48415,13.1398,131.16,12.0327,-3.02718,0.0446282,25,6007,3
151.912,0.399649,19.0113,-0.00604522,-2.70575,26.5646,154.746,24.0637,-0.338228,0.0218193,25,6008,3
163.219,0.132764,20.4113,-0.0522838,-0.903719,28.6435,166.259,25.6558,-0.105037,0.0218193,25,6009,3
145.096,0.395067,19.766,0.032471,-2.66328,14.7713,148.037,12.4942,-0.631831,0.0223141,25,6010,3
156.091,0.130834,21.1268,-0.138171,-0.899506,16.8056,159.24,13.8722,-0.353987,0.0223141,25,6011,3
150.534,0.491295,23.0708,-0.00604522,-2.69062,27.9426,154.746,24.0637,-0.338228,0.0218193,25,6012,3
161.74,0.164773,24.7687,-0.0522838,-0.898434,30.1227,166.259,25.6558,-0.105037,0.0218193,25,6013,3
143.663,0.481981,23.9869,0.032471,-2.64893,16.2041,148.037,12.4942,-0.631831,0.0223141,25,6014,3
154.561,0.165246,25.6348,-0.138171,-0.893824,18.3359,159.24,13.8722,-0.353987,0.0223141,25,6015,3
-113.149,0.864184,-16.8337,-2.4416,-5.82467,-2.21468,5.09622,-7.24401,-115.657,0.0922591,25,6016,3
-31.7461,1.93194,-4.78517,-5.81057,-13.0256,-0.209748,10.9194,-11.0503,-37.6354,0.0922591,25,6017,3
-110.588,0.671469,-16.9972,-2.38451,-4.52397,1.42233,6.59699,-5.02629,-113.121,0.0932817,25,6018,3
-31.22,1.45038,-4.98295,-7.54231,-9.76901,1.61908,8.50696,-9.22007,-36.4301,0.0932817,25,6019,3
-111.935,1.05396,-20.4112,-2.4416,-5.79334,-3.42908,5.09622,-7.24401,-115.657,0.0922591,25,6020,3
-31.4007,2.35753,-5.80271,-5.81057,-12.9553,-0.555157,10.9194,-11.0503,-37.6354,0.0922591,25,6021,3
-109.362,0.818346,-20.609,-2.38451,-4.49972,0.196278,6.59699,-5.02629,-113.121,0.0932817,25,6022,3
-30.8604,1.76674,-6.04235,-7.54231,-9.71678,1.25946,8.50696,-9.22007,-36.4301,0.0932817,25,6023,3
29.2057,2.31422,4.17006,-8.80299,-15.6079,1.73369,29.8303,12.7352,-20.429,0.0461296,25,6024,3
69.8524,2.32996,10.4191,-8.82122,-15.7313,1.20633,71.4186,11.9179,-21.0991,0.0461296,25,6025,3
27.8888,1.72148,3.70578,-14.6672,-11.5775,3.47469,28.4479,8.89482,-20.6464,0.0466408,25,6026,3
66.3628,2.0137,9.56122,-21.789,-13.4745,3.38932,67.8596,8.50862,-28.405,0.0466408,25,6027,3
28.9058,2.82558,5.05362,-8.80299,-15.5235,2.03362,29.8303,12.7352,-20.429,0.0461296,25,6028,3
69.1024,2.85035,12.6285,-8.82122,-15.6454,1.95631,71.4186,11.9179,-21.0991,0.0461296,25,6029,3
27.6221,2.09134,4.49118,-14.6672,-11.5164,3.7413,28.4479,8.89482,-20.6464,0.0466408,25,6030,3
65.6767,2.42439,11.5825,-21.789,-13.4067,4.07545,67.8596,8.50862,-28.405,0.0466408,25,6031,3
100.772,1.99149,15.3366,-6.07199,-13.4807,-0.27859,103.091,9.46139,-18.1307,0.0230648,25,6032,3
122.169,1.30742,18.5558,-2.59873,-8.90325,-0.10496,124.984,6.58933,-12.1073,0.0230648,25,6033,3
94.2466,2.53233,14.2861,-27.7074,-16.8424,0.181869,96.6849,7.30294,-37.2668,0.0233204,25,6034,3
112.319,3.14185,17.9652,-29.4679,-20.7437,-5.97263,116.044,5.96275,-45.1288,0.0233204,25,6035,3
99.6676,2.44744,18.5906,-6.07199,-13.4054,0.825989,103.091,9.46139,-18.1307,0.0230648,25,6036,3
120.832,1.62382,22.4966,-2.59873,-8.85101,1.23274,124.984,6.58933,-12.1073,0.0230648,25,6037,3
93.2243,3.01589,17.2976,-27.7074,-16.7626,1.20411,96.6849,7.30294,-37.2668,0.0233204,25,6038,3
111.033,3.69274,21.7528,-29.4679,-20.6528,-4.68693,116.044,5.96275,-45.1288,0.0233204,25,6039,3
139.052,0.55999,20.5672,-0.676695,-3.89163,3.48826,142.169,5.59575,-5.90138,0.0115324,25,6040,3
149.936,0.291099,21.7955,-1.61754,-2.04624,6.29645,153.284,8.77274,-7.44193,0.0115324,25,6041,3
125.589,3.45968,21.4549,-26.5077,-22.6368,-15.7169,131.149,6.07437,-53.8596,0.0116602,25,6042,3
134.923,2.69529,24.2339,-20.0946,-17.2234,-24.8649,142.955,6.59839,-59.5896,0.0116602,25,6043,3
137.566,0.720653,24.946,-0.676695,-3.86511,4.97465,142.169,5.59575,-5.90138,0.0115324,25,6044,3
148.363,0.382092,26.4297,-1.61754,-2.03122,7.86957,153.284,8.77274,-7.44193,0.0115324,25,6045,3
124.049,4.00028,25.9893,-26.5077,-22.5475,-14.1776,131.149,6.07437,-53.8596,0.0116602,25,6046,3
133.166,2.98403,29.4103,-20.0946,-17.1757,-23.1077,142.955,6.59839,-59.5896,0.0116602,25,6047,3
-250.95,0.0290703,-0.00886974,-1.6153,-0.134885,-250.911,-1.61518,-250.909,-250.952,0.00167713,25,6048,3
-68.2551,0.0620165,-0.00242751,-1.10911,-0.287434,-68.2444,-0.183942,-68.2445,-69.1802,0.00167713,25,6049,3
-250.877,0.0454982,-0.0213409,-1.61512,-0.210847,-250.783,-1.61482,-250.779,-250.882,0.00266631,25,6050,3
-68.2351,0.0969286,-0.00584384,-1.10918,-0.449034,-68.2093,-0.170956,-68.2096,-69.173,0.00266631,25,6051,3
-250.95,0.0335559,-0.0101283,-1.6153,-0.133836,-250.912,-1.61517,-250.909,-250.952,0.00167713,25,6052,3
-68.2549,0.0714767,-0.00277135,-1.10911,-0.285225,-68.2445,-0.183943,-68.2445,-69.1802,0.00167713,25,6053,3
-250.876,0.0524461,-0.0243648,-1.61512,-0.209232,-250.785,-1.61482,-250.779,-250.882,0.00266631,25,6054,3
-68.2347,0.111667,-0.00667033,-1.10918,-0.445602,-68.2097,-0.170956,-68.2096,-69.173,0.00266631,25,6055,3
68.6288,0.0631767,0.00243177,-0.607236,-0.292807,68.6181,68.6294,68.6192,-0.608878,0.000838566,25,6056,3
159.922,0.0513794,0.00567248,-0.305328,-0.238183,159.897,159.923,159.896,-0.305738,0.000838566,25,6057,3
68.6088,0.0988096,0.00585795,-0.60706,-0.457713,68.583,68.6101,68.5856,-0.611001,0.00133315,25,6058,3
159.875,0.0803287,0.013638,-0.305221,-0.372154,159.815,159.878,159.813,-0.306201,0.00133315,25,6059,3
68.6287,0.0728158,0.00277651,-0.607235,-0.290556,68.6183,68.6294,68.6192,-0.608877,0.000838566,25,6060,3
159.921,0.0592344,0.00647647,-0.305329,-0.236349,159.897,159.923,159.896,-0.305739,0.000838566,25,6061,3
68.6084,0.113818,0.00668663,-0.60706,-0.454218,68.5834,68.6101,68.5856,-0.611001,0.00133315,25,6062,3
159.874,0.0925517,0.0155681,-0.30522,-0.369308,159.816,159.878,159.813,-0.306201,0.00133315,25,6063,3
228.447,0.0366415,0.00810523,-0.128623,-0.169942,228.412,228.449,228.41,-0.128763,0.000419283,25,6064,3
274.175,0.023679,0.00970311,-0.0495691,-0.109919,274.132,274.177,274.13,-0.0496204,0.000419283,25,6065,3
228.381,0.0572895,0.0194406,-0.128872,-0.265462,228.295,228.385,228.291,-0.129207,0.000666576,25,6066,3
274.095,0.037077,0.0232953,-0.0502438,-0.171852,273.992,274.1,273.987,-0.0503645,0.000666576,25,6067,3
228.447,0.042271,0.00925506,-0.128623,-0.168626,228.412,228.449,228.41,-0.128764,0.000419283,25,6068,3
274.174,0.0273488,0.0110794,-0.049571,-0.10906,274.133,274.177,274.13,-0.0496223,0.000419283,25,6069,3
228.379,0.0660262,0.0221918,-0.128872,-0.26343,228.296,228.385,228.291,-0.129207,0.000666576,25,6070,3
274.093,0.0427518,0.0265948,-0.0502437,-0.170533,273.993,274.1,273.987,-0.0503645,0.000666576,25,6071,3
308.496,0.0125143,0.0108812,-0.0128831,-0.0582039,308.448,308.498,308.445,-0.0128969,0.000209641,25,6072,3
331.391,0.00428373,0.0116182,-0.00186489,-0.0201084,331.34,331.394,331.338,-0.00186798,0.000209641,25,6073,3
308.405,0.0196674,0.0262394,-0.013774,-0.09121,308.29,308.411,308.284,-0.0138049,0.000333288,25,6074,3
331.295,0.00672007,0.0281015,-0.00213332,-0.0312385,331.171,331.301,331.165,-0.00213864,0.000333288,25,6075,3
308.495,0.0144908,0.0124285,-0.0128778,-0.0577445,308.448,308.498,308.445,-0.0128915,0.000209641,25,6076,3
331.391,0.00501643,0.0132667,-0.00186569,-0.0199425,331.341,331.394,331.338,-0.0018688,0.000209641,25,6077,3
308.403,0.0226973,0.0299547,-0.0137744,-0.0905071,308.291,308.411,308.284,-0.0138053,0.000333288,25,6078,3
331.293,0.00778574,0.0321021,-0.00213514,-0.0309907,331.173,331.301,331.165,-0.00214046,0.000333288,25,6079,3
-250.692,0.0712453,-0.0528824,-1.61581,-0.330039,-250.459,-1.61507,-250.448,-250.704,0.00830233,25,6080,3
-68.1845,0.152202,-0.014493,-1.10928,-0.704892,-68.1205,-0.140948,-68.121,-69.1523,0.00830233,25,6081,3
-250.345,0.104102,-0.111901,-1.61445,-0.482885,-249.851,-1.61289,-249.828,-250.369,0.0122607,25,6082,3
-68.0895,0.222198,-0.0305082,-1.10793,-1.02991,-67.9549,-0.0848245,-67.9562,-69.1113,0.0122607,25,6083,3
-250.689,0.0820743,-0.0604166,-1.6158,-0.327514,-250.463,-1.61507,-250.448,-250.704,0.00830233,25,6084,3
-68.1835,0.17526,-0.0165472,-1.10928,-0.699516,-68.1216,-0.140948,-68.121,-69.1523,0.00830233,25,6085,3
-250.337,0.120208,-0.127827,-1.61445,-0.47913,-249.859,-1.61289,-249.828,-250.369,0.0122607,25,6086,3
-68.0874,0.256235,-0.0348295,-1.10793,-1.02198,-67.957,-0.0848245,-67.9562,-69.1113,0.0122607,25,6087,3
68.5579,0.15497,0.0145684,-0.60705,-0.717756,68.4937,68.5611,68.5003,-0.616817,0.00415116,25,6088,3
159.757,0.125973,0.0338286,-0.304829,-0.583455,159.608,159.764,159.603,-0.30726,0.00415116,25,6089,3
68.4627,0.226301,0.0305736,-0.608432,-1.04888,68.3278,68.4693,68.3418,-0.629114,0.00613036,25,6090,3
159.535,0.184191,0.0713504,-0.306771,-0.85384,159.22,159.55,159.21,-0.311931,0.00613036,25,6091,3
68.5569,0.178466,0.0166358,-0.60705,-0.712277,68.4947,68.5611,68.5003,-0.616817,0.00415116,25,6092,3
159.754,0.145074,0.0386401,-0.304829,-0.579001,159.61,159.764,159.603,-0.30726,0.00415116,25,6093,3
68.4606,0.260945,0.0349108,-0.608432,-1.0408,68.3299,68.4693,68.3418,-0.629114,0.00613036,25,6094,3
159.53,0.212447,0.0814808,-0.306771,-0.847251,159.225,159.55,159.21,-0.311931,0.00613036,25,6095,3
228.212,0.0897798,0.0481994,-0.128335,-0.41585,227.999,228.223,227.99,-0.129164,0.00207558,25,6096,3
273.893,0.0581112,0.0577248,-0.0499424,-0.269156,273.638,273.905,273.626,-0.0502405,0.00207558,25,6097,3
227.895,0.131515,0.102062,-0.13139,-0.609801,227.444,227.917,227.424,-0.133158,0.00306518,25,6098,3
273.512,0.0851665,0.122561,-0.052608,-0.395047,272.971,273.539,272.945,-0.053245,0.00306518,25,6099,3
228.209,0.103404,0.0550578,-0.128335,-0.412673,228.003,228.223,227.99,-0.129164,0.00207558,25,6100,3
273.889,0.066926,0.0659392,-0.0499424,-0.267101,273.642,273.905,273.626,-0.0502405,0.00207558,25,6101,3
227.888,0.151756,0.116549,-0.13139,-0.605082,227.451,227.917,227.424,-0.133158,0.00306518,25,6102,3
273.503,0.0983414,0.139968,-0.052608,-0.391975,272.98,273.539,272.945,-0.053245,0.00306518,25,6103,3
308.178,0.0308625,0.0649144,-0.0136446,-0.142927,307.892,308.192,307.878,-0.0137203,0.00103779,25,6104,3
331.051,0.0105559,0.0695065,-0.000887275,-0.0488955,330.745,331.067,330.729,-0.000899239,0.00103779,25,6105,3
307.752,0.0446871,0.137705,-0.0138718,-0.207508,307.144,307.782,307.114,-0.0140302,0.00153259,25,6106,3
330.598,0.0142737,0.146389,0.00251103,-0.0667345,329.951,330.63,329.92,0.00248759,0.00153259,25,6107,3
308.174,0.0355352,0.0741543,-0.0136445,-0.141838,307.896,308.192,307.878,-0.0137202,0.00103779,25,6108,3
331.047,0.0121581,0.0794499,-0.000887173,-0.048522,330.749,331.067,330.729,-0.000899137,0.00103779,25,6109,3
307.742,0.0516996,0.157307,-0.0138718,-0.205873,307.154,307.782,307.114,-0.0140302,0.00153259,25,6110,3
330.588,0.0167142,0.167394,0.00251104,-0.0661654,329.962,330.63,329.92,0.00248759,0.00153259,25,6111,3
-249.524,0.155683,-0.251452,-1.61811,-0.721944,-248.414,-1.61457,-248.363,-249.579,0.0363966,25,6112,3
-67.8648,0.332133,-0.0690629,-1.10822,-1.5391,-67.5601,0.0252236,-67.5627,-68.9956,0.0363966,25,6113,3
-248.032,0.216988,-0.505973,-1.63049,-1.01017,-245.797,-1.62348,-245.695,-248.142,0.0522301,25,6114,3
-67.4476,0.476249,-0.140681,-1.10017,-2.21102,-66.827,0.21191,-66.8331,-68.7536,0.0522301,25,6115,3
-249.506,0.17968,-0.287408,-1.61811,-0.716348,-248.432,-1.61457,-248.363,-249.579,0.0363966,25,6116,3
-67.86,0.382845,-0.0788465,-1.10822,-1.52728,-67.5649,0.0252236,-67.5627,-68.9956,0.0363966,25,6117,3
-247.996,0.252174,-0.578538,-1.63049,-1.00196,-245.833,-1.62348,-245.695,-248.142,0.0522301,25,6118,3
-67.4378,0.550776,-0.160537,-1.10017,-2.19365,-66.8368,0.21191,-66.8331,-68.7536,0.0522301,25,6119,3
68.2375,0.337828,0.0691786,-0.60839,-1.56566,67.9322,68.2525,67.9639,-0.655077,0.0181983,25,6120,3
159.011,0.275121,0.16046,-0.306996,-1.27503,158.303,159.046,158.28,-0.318676,0.0181983,25,6121,3
67.8219,0.483696,0.140289,-0.612844,-2.2457,67.2027,67.8523,67.2683,-0.708879,0.0261151,25,6122,3
158.045,0.393669,0.326169,-0.314018,-1.8283,156.605,158.115,156.559,-0.338091,0.0261151,25,6123,3
68.2327,0.389485,0.0790096,-0.60839,-1.55362,67.937,68.2525,67.9639,-0.655077,0.0181983,25,6124,3
159,0.317183,0.183324,-0.306996,-1.26522,158.314,159.046,158.28,-0.318676,0.0181983,25,6125,3
67.812,0.559433,0.160199,-0.612844,-2.22804,67.2125,67.8523,67.2683,-0.708879,0.0261151,25,6126,3
158.022,0.455565,0.372533,-0.314018,-1.81387,156.628,158.115,156.559,-0.338091,0.0261151,25,6127,3
227.146,0.196956,0.229205,-0.133784,-0.912804,226.134,227.196,226.089,-0.13781,0.00909915,25,6128,3
272.613,0.128002,0.275257,-0.0542558,-0.593299,271.398,272.673,271.34,-0.0557191,0.00909915,25,6129,3
225.772,0.279524,0.465943,-0.132028,-1.2992,223.715,225.873,223.622,-0.140226,0.0130575,25,6130,3
270.98,0.176651,0.555729,-0.0379223,-0.822598,268.525,271.1,268.408,-0.0407428,0.0130575,25,6131,3
227.13,0.227079,0.261851,-0.133784,-0.90578,226.15,227.196,226.089,-0.13781,0.00909915,25,6132,3
272.594,0.147608,0.314511,-0.0542558,-0.588727,271.417,272.673,271.34,-0.0557191,0.00909915,25,6133,3
225.739,0.323925,0.532279,-0.132028,-1.28885,223.748,225.873,223.622,-0.140226,0.0130575,25,6134,3
270.94,0.205393,0.635199,-0.0379223,-0.815896,268.565,271.1,268.408,-0.0407428,0.0130575,25,6135,3
306.741,0.0676489,0.309341,-0.0114495,-0.313766,305.375,306.808,305.309,-0.0118172,0.00454957,25,6136,3
329.515,0.0218605,0.330392,0.0132138,-0.101855,328.055,329.587,327.984,0.013163,0.00454957,25,6137,3
304.923,0.0864912,0.618541,0.0191474,-0.405159,302.19,305.057,302.057,0.0185404,0.00652877,25,6138,3
327.583,0.0198748,0.654093,0.0535293,-0.0970428,324.691,327.724,324.55,0.0534256,0.00652877,25,6139,3
306.719,0.0781027,0.353597,-0.0114495,-0.311329,305.397,306.808,305.309,-0.0118172,0.00454957,25,6140,3
329.492,0.0254434,0.377999,0.0132138,-0.10102,328.079,329.587,327.984,0.013163,0.00454957,25,6141,3
304.879,0.101626,0.70756,0.0191474,-0.40163,302.234,305.057,302.057,0.0185404,0.00652877,25,6142,3
327.536,0.0250957,0.749075,0.0535294,-0.0958254,324.738,327.724,324.55,0.0534256,0.00652877,25,6143,3
-244.568,0.322025,-1.08927,-1.65033,-1.4967,-239.755,-1.63431,-239.535,-244.803,0.151961,25,6144,3
-66.4974,0.69404,-0.301832,-1.09101,-3.2191,-65.1656,0.536719,-65.1841,-68.1066,0.151961,25,6145,3
-238.414,0.418762,-2.14839,-1.83141,-1.96565,-228.916,-1.8016,-228.482,-238.879,0.215295,25,6146,3
-64.7811,1.0064,-0.610515,-1.15179,-4.68575,-62.0856,1.01366,-62.1477,-66.8844,0.215295,25,6147,3
-244.49,0.373159,-1.24598,-1.65033,-1.48478,-239.832,-1.63431,-239.535,-244.803,0.151961,25,6148,3
-66.4763,0.801306,-0.344558,-1.09101,-3.19409,-65.1866,0.536719,-65.1841,-68.1066,0.151961,25,6149,3
-238.261,0.493807,-2.45972,-1.83141,-1.94815,-229.07,-1.8016,-228.482,-238.879,0.215295,25,6150,3
-64.7381,1.16984,-0.697573,-1.15179,-4.64764,-62.1285,1.01366,-62.1477,-66.8844,0.215295,25,6151,3
66.8694,0.705775,0.300864,-0.621816,-3.27367,65.5414,66.9347,65.6886,-0.834277,0.0759804,25,6152,3
155.827,0.575725,0.700165,-0.328569,-2.67096,152.736,155.978,152.638,-0.382616,0.0759804,25,6153,3
65.1559,1.02874,0.607268,-0.554138,-4.7891,62.474,65.2875,62.8189,-1.03072,0.107648,25,6154,3
151.847,0.816694,1.40703,-0.179819,-3.80728,145.632,152.151,145.443,-0.295239,0.107648,25,6155,3
66.8483,0.814919,0.343665,-0.621816,-3.24823,65.5625,66.9347,65.6886,-0.834277,0.0759804,25,6156,3
155.778,0.664983,0.799964,-0.328569,-2.65015,152.785,155.978,152.638,-0.382616,0.0759804,25,6157,3
65.1131,1.19552,0.694195,-0.554138,-4.75021,62.5168,65.2875,62.8189,-1.03072,0.107648,25,6158,3
151.748,0.951447,1.60886,-0.179819,-3.77586,145.731,152.151,145.443,-0.295239,0.107648,25,6159,3
222.609,0.411238,0.998377,-0.140678,-1.90886,218.2,222.825,218.003,-0.159462,0.0379902,25,6160,3
267.193,0.263325,1.19274,-0.0259876,-1.22396,261.923,267.45,261.672,-0.0326347,0.0379902,25,6161,3
216.967,0.553316,1.98777,0.0611439,-2.58792,208.184,217.397,207.79,0.0256068,0.0538238,25,6162,3
260.478,0.324878,2.35102,0.19515,-1.53061,250.085,260.986,249.587,0.184598,0.0538238,25,6163,3
222.539,0.475438,1.14107,-0.140678,-1.89389,218.271,222.825,218.003,-0.159462,0.0379902,25,6164,3
267.108,0.305176,1.36403,-0.0259876,-1.21421,262.008,267.45,261.672,-0.0326347,0.0379902,25,6165,3
216.826,0.648352,2.27402,0.0611439,-2.56576,208.325,217.397,207.79,0.0256068,0.0538238,25,6166,3
260.31,0.385596,2.69142,0.19515,-1.51645,250.253,260.986,249.587,0.184598,0.0538238,25,6167,3
300.67,0.132866,1.33414,0.0572082,-0.620148,294.774,300.959,294.487,0.0557108,0.0189951,25,6168,3
323.021,0.0343949,1.42313,0.1189,-0.16452,316.728,323.328,316.421,0.118675,0.0189951,25,6169,3
293.166,0.131409,2.60971,0.280866,-0.635305,281.625,293.73,281.063,0.278459,0.0269119,25,6170,3
314.999,-0.00760662,2.77013,0.332781,0.00806623,302.743,315.597,302.148,0.330161,0.0269119,25,6171,3
300.575,0.155121,1.52676,0.0572082,-0.614959,294.869,300.959,294.487,0.0557108,0.0189951,25,6172,3
322.919,0.0419173,1.62979,0.1189,-0.162766,316.83,323.328,316.421,0.118675,0.0189951,25,6173,3
292.979,0.163131,2.9895,0.280866,-0.627908,281.812,293.73,281.063,0.278459,0.0269119,25,6174,3
314.799,0.00325456,3.17513,0.332781,0.0105987,302.943,315.597,302.148,0.330161,0.0269119,25,6175,3
-223.951,0.66554,-4.51216,-1.84793,-3.08188,-204.015,-1.7565,-203.13,-224.927,0.620593,25,6176,3
-60.8708,1.41271,-1.24263,-1.14883,-6.54237,-55.3827,1.85108,-55.603,-63.6504,0.620593,25,6177,3
-198.52,0.958138,-8.80002,-1.57028,-4.4126,-159.678,-1.32493,-158.019,-200.425,0.873929,25,6178,3
-53.9784,1.95483,-2.39801,-1.09957,-9.02837,-43.394,3.31703,-44.0323,-57.7567,0.873929,25,6179,3
-223.631,0.766174,-5.16142,-1.84793,-3.05841,-204.335,-1.7565,-203.13,-224.927,0.620593,25,6180,3
-60.7831,1.6266,-1.42051,-1.14883,-6.49249,-55.4705,1.85108,-55.603,-63.6504,0.620593,25,6181,3
-197.903,1.09232,-10.0505,-1.57028,-4.38132,-160.295,-1.32493,-158.019,-200.425,0.873929,25,6182,3
-53.8104,2.23991,-2.73879,-1.09957,-8.9619,-43.562,3.31703,-44.0323,-57.7567,0.873929,25,6183,3
61.2215,1.43858,1.24474,-0.561027,-6.66204,55.7237,61.5015,56.577,-1.69426,0.310296,25,6184,3
142.67,1.17167,2.89569,-0.190504,-5.42613,129.879,143.296,129.557,-0.495453,0.310296,25,6185,3
54.2956,1.98934,2.40685,-0.617072,-9.18818,43.6721,54.8893,45.5802,-3.11891,0.436965,25,6186,3
126.514,1.63306,5.60958,-0.329553,-7.53832,101.754,127.728,101.286,-1.07573,0.436965,25,6187,3
61.1336,1.65632,1.4231,-0.561027,-6.61127,55.8117,61.5015,56.577,-1.69426,0.310296,25,6188,3
142.465,1.34907,3.31099,-0.190504,-5.38476,130.084,143.296,129.557,-0.495453,0.310296,25,6189,3
54.1269,2.27964,2.74891,-0.617072,-9.12049,43.8408,54.8893,45.5802,-3.11891,0.436965,25,6190,3
126.121,1.86947,6.40675,-0.329553,-7.48319,102.147,127.728,101.286,-1.07573,0.436965,25,6191,3
203.836,0.837596,4.12297,0.0540188,-3.87905,185.622,204.727,184.838,-0.054076,0.155148,25,6192,3
244.685,0.542527,4.929,0.199484,-2.51242,222.907,245.751,221.881,0.159832,0.155148,25,6193,3
180.729,1.18734,8.01142,-0.167575,-5.47423,145.369,182.463,143.916,-0.448808,0.218482,25,6194,3
216.917,0.79392,9.61089,-0.100228,-3.6523,174.496,218.997,172.53,-0.214318,0.218482,25,6195,3
203.544,0.964442,4.71514,0.0540188,-3.84947,185.914,204.727,184.838,-0.054076,0.155148,25,6196,3
244.335,0.624639,5.63814,0.199484,-2.49328,223.257,245.751,221.881,0.159832,0.155148,25,6197,3
180.168,1.35629,9.14981,-0.167575,-5.43483,145.93,182.463,143.916,-0.448808,0.218482,25,6198,3
216.243,0.903324,10.9765,-0.100228,-3.62679,175.17,218.997,172.53,-0.214318,0.218482,25,6199,3
275.362,0.286326,5.52715,0.298733,-1.32575,250.939,276.558,249.754,0.288463,0.0775741,25,6200,3
295.843,0.0962604,5.92064,0.363304,-0.445406,269.678,297.123,268.4,0.361281,0.0775741,25,6201,3
244.085,0.452342,10.8086,-0.0712697,-2.07078,196.378,246.424,194.075,-0.107996,0.109241,25,6202,3
262.217,0.198857,11.6048,-0.0626074,-0.897596,210.996,264.729,208.494,-0.0720732,0.109241,25,6203,3
274.97,0.329565,6.32354,0.298733,-1.31567,251.332,276.558,249.754,0.288463,0.0775741,25,6204,3
295.422,0.110665,6.77476,0.363304,-0.442047,270.099,297.123,268.4,0.361281,0.0775741,25,6205,3
243.328,0.510189,12.3445,-0.0712697,-2.05729,197.135,246.424,194.075,-0.107996,0.109241,25,6206,3
261.404,0.218647,13.2538,-0.0626074,-0.892981,211.809,264.729,208.494,-0.0720732,0.109241,25,6207,3
-174.963,1.09158,-12.8835,-1.41578,-5.07679,-118.107,-1.02598,-115.708,-177.751,0.531966,25,6208,3
-47.5877,2.42076,-3.49215,-1.05601,-11.2292,-32.175,4.93065,-33.4871,-52.2624,0.531966,25,6209,3
-155.967,1.26382,-16.1313,-1.57626,-5.84651,-84.7626,-0.853127,-81.9947,-159.458,0.5953,25,6210,3
-42.4031,2.67392,-4.38883,-1.1217,-12.3741,-23.0295,6.4507,-25.3872,-47.6177,0.5953,25,6211,3
-174.062,1.2664,-14.7103,-1.41578,-5.03603,-119.008,-1.02598,-115.708,-177.751,0.531966,25,6212,3
-47.3432,2.79544,-3.98798,-1.05601,-11.1419,-32.4195,4.93065,-33.4871,-52.2624,0.531966,25,6213,3
-154.836,1.45236,-18.4249,-1.57626,-5.80255,-85.8936,-0.853127,-81.9947,-159.458,0.5953,25,6214,3
-42.0951,3.07477,-5.01331,-1.1217,-12.2807,-23.3374,6.4507,-25.3872,-47.6177,0.5953,25,6215,3
47.8754,2.46998,3.50774,-0.667099,-11.4571,32.3941,48.6346,35.8873,-4.91951,0.265983,25,6216,3
111.54,1.99035,8.1832,-0.440408,-9.23677,75.4245,113.311,74.9484,-1.73549,0.265983,25,6217,3
42.6747,2.72354,4.40603,-0.600064,-12.604,23.2254,43.6282,28.485,-6.81318,0.29765,25,6218,3
99.4221,2.21984,10.2715,-0.295367,-10.2717,54.0817,101.645,54.0819,-2.51844,0.29765,25,6219,3
47.6298,2.8521,4.00566,-0.667099,-11.368,32.6397,48.6346,35.8873,-4.91951,0.265983,25,6220,3
110.967,2.30023,9.34456,-0.440408,-9.16452,75.9972,113.311,74.9484,-1.73549,0.265983,25,6221,3
42.3656,3.13192,5.03283,-0.600064,-12.5087,23.5345,43.6282,28.485,-6.81318,0.29765,25,6222,3
98.7016,2.55215,11.7326,-0.295367,-10.1942,54.8022,101.645,54.0819,-2.51844,0.29765,25,6223,3
159.32,1.39441,11.705,-0.31911,-6.47823,107.664,161.854,105.572,-0.761153,0.132991,25,6224,3
191.193,0.875598,14.068,-0.275319,-4.0771,129.11,194.238,126.218,-0.428484,0.132991,25,6225,3
142.028,1.59,14.6735,-0.13243,-7.35565,77.2573,145.203,74.8942,-0.944825,0.148825,25,6226,3
170.459,1.03479,17.6125,-0.0854123,-4.78583,92.7173,174.271,89.2078,-0.387566,0.148825,25,6227,3
158.502,1.61464,13.3654,-0.31911,-6.42688,108.483,161.854,105.572,-0.761153,0.132991,25,6228,3
190.209,1.01796,16.0628,-0.275319,-4.04391,130.094,194.238,126.218,-0.428484,0.132991,25,6229,3
140.999,1.8273,16.7603,-0.13243,-7.30032,78.2864,145.203,74.8942,-0.944825,0.148825,25,6230,3
169.224,1.18864,20.1167,-0.0854123,-4.74996,93.9522,174.271,89.2078,-0.387566,0.148825,25,6231,3
215.113,0.433055,15.8468,-0.262915,-2.02947,145.182,218.543,141.787,-0.298264,0.0664957,25,6232,3
231.069,0.111611,17.0362,-0.266031,-0.542642,155.89,234.756,152.209,-0.272065,0.0664957,25,6233,3
191.799,0.55381,19.8195,-0.0867472,-2.56025,104.316,196.088,100.107,-0.166436,0.0744125,25,6234,3
206.032,0.197403,21.2929,-0.112946,-0.911891,112.048,210.64,107.453,-0.12588,0.0744125,25,6235,3
214.005,0.509216,18.093,-0.262915,-2.01171,146.29,218.543,141.787,-0.298264,0.0664957,25,6236,3
229.878,0.139903,19.4505,-0.266031,-0.536045,157.081,234.756,152.209,-0.272065,0.0664957,25,6237,3
190.409,0.635672,22.6368,-0.0867472,-2.54116,105.706,196.088,100.107,-0.166436,0.0744125,25,6238,3
204.54,0.226274,24.3191,-0.112946,-0.905159,113.54,210.64,107.453,-0.12588,0.0744125,25,6239,3
-140.5,1.34148,-18.7709,-1.54698,-6.22656,-57.6457,-0.359558,-54.7708,-144.562,0.3214,25,6240,3
-38.1904,2.90354,-5.10214,-1.0902,-13.4579,-15.6683,8.43275,-19.497,-43.8846,0.3214,25,6241,3
-129.35,1.44565,-20.6837,-1.57184,-6.69279,-38.0482,0.482249,-35.6261,-133.826,0.337234,25,6242,3
-35.1583,3.04879,-5.60029,-0.96696,-14.1144,-10.4372,10.3562,-15.778,-41.1406,0.337234,25,6243,3
-139.184,1.5508,-21.4394,-1.54698,-6.17776,-58.9616,-0.359558,-54.7708,-144.562,0.3214,25,6244,3
-37.8325,3.34815,-5.82803,-1.0902,-13.3542,-16.0262,8.43275,-19.497,-43.8846,0.3214,25,6245,3
-127.899,1.66358,-23.626,-1.57184,-6.64197,-39.4991,0.482249,-35.6261,-133.826,0.337234,25,6246,3
-34.7654,3.50827,-6.39703,-0.96696,-14.0073,-10.8301,10.3562,-15.778,-41.1406,0.337234,25,6247,3
38.4542,2.95561,5.12375,-0.602168,-13.6991,15.8371,39.5631,23.2742,-9.14808,0.1607,25,6248,3
89.5784,2.39855,11.9438,-0.324174,-11.1193,36.8564,92.1631,37.8487,-3.9012,0.1607,25,6249,3
35.3956,3.07456,5.67954,-0.440971,-14.2341,10.3246,36.6307,19.778,-11.1295,0.168617,25,6250,3
82.4906,2.48427,13.1778,-0.184687,-11.5006,24.3208,85.3423,26.8294,-5.54508,0.168617,25,6251,3
38.0948,3.40816,5.85256,-0.602168,-13.5936,16.1965,39.5631,23.2742,-9.14808,0.1607,25,6252,3
88.7406,2.76674,13.6426,-0.324174,-11.0334,37.6942,92.1631,37.8487,-3.9012,0.1607,25,6253,3
34.9971,3.53809,6.48759,-0.440971,-14.126,10.7231,36.6307,19.778,-11.1295,0.168617,25,6254,3
81.5661,2.85853,15.0524,-0.184687,-11.4134,25.2453,85.3423,26.8294,-5.54508,0.168617,25,6255,3
127.964,1.70109,17.0646,-0.177743,-7.88997,52.6391,131.657,50.2832,-1.51472,0.0803501,25,6256,3
153.574,1.08579,20.4912,-0.12683,-5.04209,63.126,158.009,59.1712,-0.606675,0.0803501,25,6257,3
117.875,1.76566,18.7948,-0.0594784,-8.1735,34.9102,121.942,33.0485,-2.26519,0.0843085,25,6258,3
141.503,1.1414,22.5405,-0.0218075,-5.2838,42.0044,146.381,37.9567,-0.852026,0.0843085,25,6259,3
126.767,1.96398,19.4914,-0.177743,-7.82868,53.8359,131.657,50.2832,-1.51472,0.0803501,25,6260,3
152.137,1.25625,23.4044,-0.12683,-5.00234,64.5626,158.009,59.1712,-0.606675,0.0803501,25,6261,3
116.556,2.03148,21.4685,-0.0594784,-8.11152,36.2287,121.942,33.0485,-2.26519,0.0843085,25,6262,3
139.922,1.31327,25.747,-0.0218075,-5.24372,43.5857,146.381,37.9567,-0.852026,0.0843085,25,6263,3
172.788,0.555607,23.0711,-0.114366,-2.58935,70.955,177.781,66.0765,-0.22894,0.040175,25,6264,3
185.594,0.168894,24.8008,-0.123901,-0.80066,76.1296,190.962,70.7779,-0.139739,0.040175,25,6265,3
159.241,0.604283,25.354,-0.0182073,-2.79768,47.3231,164.727,42.0476,-0.229328,0.0421542,25,6266,3
171.065,0.208144,27.2353,-0.0443346,-0.966095,50.8442,176.959,44.9811,-0.075129,0.0421542,25,6267,3
171.171,0.64693,26.35,-0.114366,-2.56805,72.572,177.781,66.0765,-0.22894,0.040175,25,6268,3
183.857,0.202647,28.3243,-0.123901,-0.79279,77.8672,190.962,70.7779,-0.139739,0.040175,25,6269,3
157.462,0.695418,28.9605,-0.0182073,-2.77643,49.1016,164.727,42.0476,-0.229328,0.0421542,25,6270,3
169.155,0.240615,31.1091,-0.0443346,-0.958524,52.7545,176.959,44.9811,-0.075129,0.0421542,25,6271,3
-120.605,1.52331,-22.2123,-1.59538,-7.05722,-22.5559,1.87701,-21.2214,-125.412,0.174555,25,6272,3
-32.9552,3.18674,-5.95428,-1.12098,-14.7579,-6.67159,12.1169,-13.63,-39.2347,0.174555,25,6273,3
-114.692,1.4712,-23.2587,-1.96392,-6.81417,-12.0229,3.33661,-12.29,-119.725,0.178513,25,6274,3
-31.7349,3.16492,-6.32695,-2.8317,-14.6556,-3.80702,12.4143,-12.4406,-38.3473,0.178513,25,6275,3
-119.047,1.75511,-25.3717,-1.59538,-7.00317,-24.114,1.87701,-21.2214,-125.412,0.174555,25,6276,3
-32.5375,3.66916,-6.80138,-1.12098,-14.6454,-7.08933,12.1169,-13.63,-39.2347,0.174555,25,6277,3
-113.06,1.69435,-26.5673,-1.96392,-6.76214,-13.6545,3.33661,-12.29,-119.725,0.178513,25,6278,3
-31.2912,3.64348,-7.22672,-2.8317,-14.544,-4.25073,12.4143,-12.4406,-38.3473,0.178513,25,6279,3
32.8468,3.18081,6.15614,-0.542244,-14.7316,5.67157,34.1849,17.1995,-13.4082,0.0872773,25,6280,3
76.9003,2.53105,14.1591,-0.178736,-11.7229,14.3974,79.9641,18.9896,-7.83476,0.0872773,25,6281,3
30.6329,3.35354,6.32741,-2.82494,-15.5343,2.6976,32.0154,15.2756,-16.7854,0.0892564,25,6282,3
72.5068,2.77694,14.8212,-1.82403,-12.8687,7.07281,75.7153,14.5171,-12.4769,0.0892564,25,6283,3
32.4148,3.66286,7.03218,-0.542244,-14.6192,6.10358,34.1849,17.1995,-13.4082,0.0872773,25,6284,3
75.9067,2.91486,16.1739,-0.178736,-11.6334,15.391,79.9641,18.9896,-7.83476,0.0872773,25,6285,3
30.1881,3.86295,7.22939,-2.82494,-15.4155,3.14241,32.0154,15.2756,-16.7854,0.0892564,25,6286,3
71.4651,3.20111,16.9335,-1.82403,-12.7698,8.1145,75.7153,14.5171,-12.4769,0.0892564,25,6287,3
110.069,1.76414,20.1121,-0.0263066,-8.17098,21.2881,114.421,20.4409,-3.531,0.0436386,25,6288,3
132.242,1.11866,24.0641,-0.00575912,-5.18332,26.0171,137.45,22.1539,-1.35048,0.0436386,25,6289,3
104.264,1.92819,21.1093,-0.751755,-8.93844,11.0695,108.833,12.8367,-7.08792,0.0446282,25,6290,3
125.718,1.1757,25.1558,-0.216219,-5.44901,14.6643,131.16,12.0327,-3.02718,0.0446282,25,6291,3
108.658,2.03172,22.9738,-0.0263066,-8.10859,22.6994,114.421,20.4409,-3.531,0.0436386,25,6292,3
130.553,1.28922,27.4875,-0.00575912,-5.14355,27.7054,137.45,22.1539,-1.35048,0.0436386,25,6293,3
102.781,2.22403,24.1176,-0.751755,-8.86945,12.5531,108.833,12.8367,-7.08792,0.0446282,25,6294,3
123.951,1.35559,28.7384,-0.216219,-5.40707,16.431,131.16,12.0327,-3.02718,0.0446282,25,6295,3
148.895,0.575758,27.0292,-0.00604522,-2.67382,29.5822,154.746,24.0637,-0.338228,0.0218193,25,6296,3
159.979,0.191585,29.0195,-0.0522838,-0.893101,31.8834,166.259,25.6558,-0.105037,0.0218193,25,6297,3
141.958,0.568408,28.1022,0.032471,-2.63174,17.9088,148.037,12.4942,-0.631831,0.0223141,25,6298,3
152.738,0.189384,30.0362,-0.138171,-0.889023,20.159,159.24,13.8722,-0.353987,0.0223141,25,6299,3
146.999,0.666218,30.8742,-0.00604522,-2.65273,31.4783,154.746,24.0637,-0.338228,0.0218193,25,6300,3
157.944,0.223181,33.1465,-0.0522838,-0.885734,33.9186,166.259,25.6558,-0.105037,0.0218193,25,6301,3
139.987,0.654197,32.1,0.032471,-2.61173,19.8802,148.037,12.4942,-0.631831,0.0223141,25,6302,3
150.632,0.223352,34.3059,-0.138171,-0.881103,22.2646,159.24,13.8722,-0.353987,0.0223141,25,6303,3
-110.477,1.24329,-23.9296,-2.4416,-5.75568,-4.88645,5.09622,-7.24401,-115.657,0.0922591,25,6304,3
-30.9866,2.77972,-6.80239,-5.81057,-12.8713,-0.969237,10.9194,-11.0503,-37.6354,0.0922591,25,6305,3
-107.89,0.965913,-24.1619,-2.38451,-4.47036,-1.27538,6.59699,-5.02629,-113.121,0.0932817,25,6306,3
-30.4291,2.0862,-7.0835,-7.54231,-9.65323,0.828204,8.50696,-9.22007,-36.4301,0.0932817,25,6307,3
-108.806,1.4306,-27.318,-2.4416,-5.712,-6.55741,5.09622,-7.24401,-115.657,0.0922591,25,6308,3
-30.5113,3.1998,-7.76614,-5.81057,-12.7734,-1.44451,10.9194,-11.0503,-37.6354,0.0922591,25,6309,3
-106.203,1.11089,-27.5828,-2.38451,-4.43656,-2.96238,6.59699,-5.02629,-113.121,0.0932817,25,6310,3
-29.9343,2.39846,-8.0869,-7.54231,-9.58042,0.333382,8.50696,-9.22007,-36.4301,0.0932817,25,6311,3
28.5439,3.33007,5.9273,-8.80299,-15.4231,2.39551,29.8303,12.7352,-20.429,0.0461296,25,6312,3
68.1987,3.35385,14.81,-8.82122,-15.5452,2.85994,71.4186,11.9179,-21.0991,0.0461296,25,6313,3
27.3006,2.475,5.26741,-14.6672,-11.4401,4.06283,28.4479,8.89482,-20.6464,0.0466408,25,6314,3
64.8454,2.89066,13.5893,-21.789,-13.3139,4.90669,67.8596,8.50862,-28.405,0.0466408,25,6315,3
28.1312,3.83481,6.76414,-8.80299,-15.3054,2.8082,29.8303,12.7352,-20.429,0.0461296,25,6316,3
67.1668,3.86751,16.9026,-8.82122,-15.4255,3.89187,71.4186,11.9179,-21.0991,0.0461296,25,6317,3
26.9338,2.84007,6.01129,-14.6672,-11.355,4.42967,28.4479,8.89482,-20.6464,0.0466408,25,6318,3
63.9013,3.29604,15.5037,-21.789,-13.2194,5.85077,67.8596,8.50862,-28.405,0.0466408,25,6319,3
98.3381,2.8689,21.8003,-6.07199,-13.3216,2.15549,103.091,9.46139,-18.1307,0.0230648,25,6320,3
119.224,1.88692,26.3771,-2.59873,-8.79868,2.8401,124.984,6.58933,-12.1073,0.0230648,25,6321,3
91.9795,3.62845,20.3028,-27.7074,-16.6408,2.44895,96.6849,7.30294,-37.2668,0.0233204,25,6322,3
109.468,4.49183,25.5316,-29.4679,-20.4938,-3.12169,116.044,5.96275,-45.1288,0.0233204,25,6323,3
96.8182,3.31896,24.8822,-6.07199,-13.2167,3.67535,103.091,9.46139,-18.1307,0.0230648,25,6324,3
117.384,2.19923,30.1095,-2.59873,-8.72585,4.68072,124.984,6.58933,-12.1073,0.0230648,25,6325,3
90.5729,4.10576,23.1551,-27.7074,-16.5295,3.85552,96.6849,7.30294,-37.2668,0.0233204,25,6326,3
107.699,5.03559,29.1189,-29.4679,-20.367,-1.35263,116.044,5.96275,-45.1288,0.0233204,25,6327,3
135.788,0.813316,29.2386,-0.676695,-3.84667,6.75271,142.169,5.59575,-5.90138,0.0115324,25,6328,3
146.477,0.424306,30.9834,-1.61754,-2.02282,9.75575,153.284,8.77274,-7.44193,0.0115324,25,6329,3
122.184,4.93279,30.4934,-26.5077,-22.362,-12.312,131.149,6.07437,-53.8596,0.0116602,25,6330,3
131.076,3.81598,34.4548,-20.0946,-17.0103,-21.0182,142.955,6.59839,-59.5896,0.0116602,25,6331,3
133.743,0.9719,33.3859,-0.676695,-3.8097,8.79792,142.169,5.59575,-5.90138,0.0115324,25,6332,3
144.312,0.514122,35.3727,-1.61754,-2.00188,11.9203,153.284,8.77274,-7.44193,0.0115324,25,6333,3
120.066,5.46639,34.7881,-26.5077,-22.2376,-10.1941,131.149,6.07437,-53.8596,0.0116602,25,6334,3
128.659,4.10099,39.3576,-20.0946,-16.9438,-18.6004,142.955,6.59839,-59.5896,0.0116602,25,6335,3
-250.952,0.00222676,-0.000707124,-1.6153,-0.137961,-250.909,-1.61517,-250.909,-250.952,0.00167713,25,6336,3
-68.2556,0.00478044,-0.000191861,-1.10911,-0.294006,-68.2438,-0.183943,-68.2445,-69.1802,0.00167713,25,6337,3
-250.882,0.00349414,-0.00169727,-1.61512,-0.215676,-250.778,-1.61482,-250.779,-250.882,0.00266631,25,6338,3
-68.2363,0.00746809,-0.000465727,-1.10918,-0.45932,-68.208,-0.170956,-68.2096,-69.173,0.00266631,25,6339,3
-250.952,0.00683101,-0.00210782,-1.6153,-0.137813,-250.909,-1.61518,-250.909,-250.952,0.00167713,25,6340,3
-68.2556,0.01449,-0.000574192,-1.10911,-0.293691,-68.2439,-0.183942,-68.2445,-69.1802,0.00167713,25,6341,3
-250.882,0.0106234,-0.00506133,-1.61512,-0.215439,-250.779,-1.61482,-250.779,-250.882,0.00266631,25,6342,3
-68.2363,0.0225928,-0.00138538,-1.10918,-0.458821,-68.2081,-0.170956,-68.2096,-69.173,0.00266631,25,6343,3
68.6294,0.00486677,0.000193313,-0.607235,-0.299502,68.6176,68.6294,68.6192,-0.608877,0.000838566,25,6344,3
159.923,0.00395556,0.000451532,-0.305329,-0.243626,159.895,159.923,159.896,-0.305739,0.000838566,25,6345,3
68.6101,0.00762056,0.000466542,-0.60706,-0.468199,68.5817,68.6101,68.5856,-0.611001,0.00133315,25,6346,3
159.878,0.00618582,0.00108579,-0.30522,-0.380678,159.812,159.878,159.813,-0.306201,0.00133315,25,6347,3
68.6293,0.01476,0.000576808,-0.607236,-0.299181,68.6176,68.6294,68.6192,-0.608878,0.000838566,25,6348,3
159.923,0.0120177,0.00134612,-0.305328,-0.243365,159.895,159.923,159.896,-0.305738,0.000838566,25,6349,3
68.61,0.0230221,0.00138856,-0.60706,-0.46769,68.5818,68.6101,68.5856,-0.611001,0.00133315,25,6350,3
159.878,0.0187289,0.00323315,-0.305221,-0.380263,159.812,159.878,159.813,-0.306201,0.00133315,25,6351,3
228.449,0.00281293,0.000644358,-0.128623,-0.173821,228.41,228.449,228.41,-0.128764,0.000419283,25,6352,3
274.177,0.00181003,0.000772287,-0.049571,-0.112423,274.13,274.177,274.13,-0.0496223,0.000419283,25,6353,3
228.385,0.00440419,0.0015478,-0.128872,-0.271542,228.291,228.385,228.291,-0.129207,0.000666576,25,6354,3
274.1,0.00284203,0.00185333,-0.0502437,-0.175787,273.987,274.1,273.987,-0.0503645,0.000666576,25,6355,3
228.449,0.00859115,0.00192356,-0.128623,-0.173635,228.41,228.449,228.41,-0.128763,0.000419283,25,6356,3
274.177,0.00557708,0.00230393,-0.0495691,-0.112303,274.13,274.177,274.13,-0.0496204,0.000419283,25,6357,3
228.385,0.0133693,0.00460879,-0.128872,-0.271244,228.291,228.385,228.291,-0.129207,0.000666576,25,6358,3
274.099,0.00866488,0.00552426,-0.0502438,-0.175592,273.987,274.1,273.987,-0.0503645,0.000666576,25,6359,3
308.498,0.000948309,0.000856775,-0.0128778,-0.0595274,308.445,308.498,308.445,-0.0128915,0.000209641,25,6360,3
331.394,0.00031599,0.000933725,-0.00186569,-0.0205613,331.338,331.394,331.338,-0.00186879,0.000209641,25,6361,3
308.411,0.00150103,0.00208877,-0.0137744,-0.0932977,308.284,308.411,308.284,-0.0138053,0.000333288,25,6362,3
331.301,0.000500549,0.00222686,-0.00213514,-0.0319499,331.165,331.301,331.165,-0.00214046,0.000333288,25,6363,3
308.498,0.00297639,0.002576,-0.0128831,-0.0594596,308.445,308.498,308.445,-0.0128969,0.000209641,25,6364,3
331.394,0.00106669,0.0027712,-0.00186489,-0.020532,331.338,331.394,331.338,-0.00186798,0.000209641,25,6365,3
308.411,0.00460961,0.00622322,-0.013774,-0.0931924,308.284,308.411,308.284,-0.0138049,0.000333288,25,6366,3
331.301,0.00159404,0.00667586,-0.00213332,-0.0319134,331.165,331.301,331.165,-0.00213864,0.000333288,25,6367,3
-250.704,0.00548922,-0.00418578,-1.6158,-0.337597,-250.448,-1.61507,-250.448,-250.704,0.00830233,25,6368,3
-68.1876,0.0117602,-0.00115225,-1.10928,-0.721041,-68.1174,-0.140948,-68.121,-69.1523,0.00830233,25,6369,3
-250.369,0.00789587,-0.00886524,-1.61445,-0.493916,-249.827,-1.61289,-249.828,-250.369,0.0122607,25,6370,3
-68.0961,0.0170031,-0.00242695,-1.10793,-1.05347,-67.9483,-0.0848245,-67.9562,-69.1113,0.0122607,25,6371,3
-250.703,0.0166028,-0.0125683,-1.61581,-0.337233,-250.448,-1.61507,-250.448,-250.704,0.00830233,25,6372,3
-68.1875,0.0354237,-0.00343775,-1.10928,-0.720266,-68.1176,-0.140948,-68.121,-69.1523,0.00830233,25,6373,3
-250.368,0.0244247,-0.0265845,-1.61445,-0.493375,-249.828,-1.61289,-249.828,-250.369,0.0122607,25,6374,3
-68.0958,0.0519336,-0.00723483,-1.10793,-1.05233,-67.9487,-0.0848245,-67.9562,-69.1113,0.0122607,25,6375,3
68.5611,0.0119656,0.00115705,-0.60705,-0.734197,68.4905,68.5611,68.5003,-0.616817,0.00415116,25,6376,3
159.764,0.00972627,0.00268152,-0.304829,-0.59682,159.6,159.764,159.603,-0.30726,0.00415116,25,6377,3
68.4693,0.0173259,0.00242896,-0.608432,-1.07288,68.3212,68.4693,68.3418,-0.629114,0.00613036,25,6378,3
159.55,0.0140765,0.00566435,-0.306771,-0.873367,159.205,159.55,159.21,-0.311931,0.00613036,25,6379,3
68.5609,0.0360791,0.00345723,-0.60705,-0.733408,68.4907,68.5611,68.5003,-0.616817,0.00415116,25,6380,3
159.764,0.0293289,0.00803474,-0.304829,-0.596179,159.601,159.764,159.603,-0.30726,0.00415116,25,6381,3
68.4689,0.0528808,0.0072545,-0.608432,-1.07171,68.3215,68.4693,68.3418,-0.629114,0.00613036,25,6382,3
159.55,0.0430747,0.0169355,-0.306771,-0.872418,159.206,159.55,159.21,-0.311931,0.00613036,25,6383,3
228.223,0.00692674,0.00381925,-0.128335,-0.425375,227.989,228.223,227.99,-0.129164,0.00207558,25,6384,3
273.905,0.0044852,0.0045737,-0.0499424,-0.275321,273.626,273.905,273.626,-0.0502405,0.00207558,25,6385,3
227.917,0.010022,0.0081047,-0.13139,-0.623741,227.422,227.917,227.424,-0.133158,0.00306518,25,6386,3
273.538,0.0064602,0.00972721,-0.052608,-0.404072,272.945,273.539,272.945,-0.053245,0.00306518,25,6387,3
228.222,0.0209093,0.0114498,-0.128335,-0.424917,227.99,228.223,227.99,-0.129164,0.00207558,25,6388,3
273.905,0.0135317,0.013713,-0.0499424,-0.275025,273.626,273.905,273.626,-0.0502405,0.00207558,25,6389,3
227.916,0.0307941,0.0242223,-0.13139,-0.623061,227.423,227.917,227.424,-0.133158,0.00306518,25,6390,3
273.537,0.0199812,0.0290941,-0.052608,-0.403629,272.946,273.539,272.945,-0.053245,0.00306518,25,6391,3
308.192,0.00238596,0.00514209,-0.0136445,-0.146202,307.878,308.192,307.878,-0.0137202,0.00103779,25,6392,3
331.066,0.000814601,0.00548193,-0.000887173,-0.0500154,330.73,331.067,330.729,-0.000899137,0.00103779,25,6393,3
307.781,0.00334581,0.0109079,-0.0138718,-0.212239,307.114,307.782,307.114,-0.0140302,0.00153259,25,6394,3
330.629,0.000980155,0.0115148,0.00251103,-0.0682369,329.92,330.63,329.92,0.00248759,0.00153259,25,6395,3
308.191,0.00718146,0.0154223,-0.0136446,-0.146045,307.878,308.192,307.878,-0.0137203,0.00103779,25,6396,3
331.066,0.00245891,0.0165452,-0.000887275,-0.0499615,330.73,331.067,330.729,-0.000899239,0.00103779,25,6397,3
307.78,0.0105425,0.0327168,-0.0138718,-0.212003,307.116,307.782,307.114,-0.0140302,0.00153259,25,6398,3
330.628,0.00348485,0.0348857,0.00251103,-0.0681549,329.921,330.63,329.92,0.00248759,0.00153259,25,6399,3
-249.578,0.0118474,-0.0198394,-1.61811,-0.738444,-248.36,-1.61457,-248.363,-249.579,0.0363966,25,6400,3
-67.8796,0.0254879,-0.00549339,-1.10822,-1.57432,-67.5452,0.0252236,-67.5627,-68.9956,0.0363966,25,6401,3
-248.141,0.0157449,-0.0398183,-1.63049,-1.03309,-245.689,-1.62348,-245.695,-248.142,0.0522301,25,6402,3
-67.4778,0.0357491,-0.0112253,-1.10017,-2.26145,-66.7968,0.21191,-66.8331,-68.7536,0.0522301,25,6403,3
-249.576,0.0364745,-0.059844,-1.61811,-0.737638,-248.362,-1.61457,-248.363,-249.579,0.0363966,25,6404,3
-67.8789,0.0775323,-0.0163786,-1.10822,-1.57262,-67.5459,0.0252236,-67.5627,-68.9956,0.0363966,25,6405,3
-248.136,0.0518559,-0.120553,-1.63049,-1.03191,-245.694,-1.62348,-245.695,-248.142,0.0522301,25,6406,3
-67.4764,0.112233,-0.0333172,-1.10017,-2.25895,-66.7982,0.21191,-66.8331,-68.7536,0.0522301,25,6407,3
68.2524,0.0258914,0.00548764,-0.60839,-1.60148,67.9173,68.2525,67.9639,-0.655077,0.0181983,25,6408,3
159.046,0.0210885,0.012699,-0.306996,-1.3042,158.268,159.046,158.28,-0.318676,0.0181983,25,6409,3
67.852,0.0362879,0.0111413,-0.612844,-2.29691,67.1726,67.8523,67.2683,-0.708879,0.0261151,25,6410,3
158.115,0.0294211,0.0258678,-0.314018,-1.86997,156.535,158.115,156.559,-0.338091,0.0261151,25,6411,3
68.2517,0.0789061,0.0164256,-0.60839,-1.59975,67.9181,68.2525,67.9639,-0.655077,0.0181983,25,6412,3
159.044,0.0642556,0.0381378,-0.306996,-1.30279,158.27,159.046,158.28,-0.318676,0.0181983,25,6413,3
67.8505,0.114015,0.0332932,-0.612844,-2.29437,67.174,67.8523,67.2683,-0.708879,0.0261151,25,6414,3
158.111,0.0929438,0.0774522,-0.314018,-1.86789,156.538,158.115,156.559,-0.338091,0.0261151,25,6415,3
227.195,0.0150922,0.0181459,-0.133784,-0.933689,226.085,227.196,226.089,-0.13781,0.00909915,25,6416,3
272.672,0.00979566,0.0217693,-0.0542558,-0.606871,271.339,272.673,271.34,-0.0557191,0.00909915,25,6417,3
225.872,0.0206913,0.0369031,-0.132028,-1.32877,223.615,225.873,223.622,-0.140226,0.0130575,25,6418,3
271.099,0.0127753,0.043845,-0.0379223,-0.841255,268.406,271.1,268.408,-0.0407428,0.0130575,25,6419,3
227.193,0.0460063,0.0544686,-0.133784,-0.932677,226.087,227.196,226.089,-0.13781,0.00909915,25,6420,3
272.669,0.0299166,0.0654422,-0.0542558,-0.606212,271.341,272.673,271.34,-0.0557191,0.00909915,25,6421,3
225.867,0.0662588,0.110708,-0.132028,-1.32728,223.62,225.873,223.622,-0.140226,0.0130575,25,6422,3
271.093,0.0422727,0.132263,-0.0379223,-0.840289,268.412,271.1,268.408,-0.0407428,0.0130575,25,6423,3
306.808,0.00513631,0.0243964,-0.0114495,-0.320935,305.309,306.808,305.309,-0.0118172,0.00454957,25,6424,3
329.586,0.00156948,0.0258928,0.0132138,-0.104163,327.984,329.587,327.984,0.013163,0.00454957,25,6425,3
305.056,0.00578663,0.0485272,0.0191474,-0.414248,302.058,305.057,302.057,0.0185404,0.00652877,25,6426,3
327.723,0.000560827,0.0509078,0.0535294,-0.0990555,324.551,327.724,324.55,0.0534256,0.00652877,25,6427,3
306.804,0.0158648,0.0736352,-0.0114495,-0.320584,305.312,306.808,305.309,-0.0118172,0.00454957,25,6428,3
329.583,0.00524649,0.07886,0.0132138,-0.104043,327.988,329.587,327.984,0.013163,0.00454957,25,6429,3
305.049,0.0213189,0.147569,0.0191474,-0.413739,302.064,305.057,302.057,0.0185404,0.00652877,25,6430,3
327.716,0.00591891,0.156585,0.0535293,-0.0988801,324.558,327.724,324.55,0.0534256,0.00652877,25,6431,3
-244.801,0.0238452,-0.0854878,-1.65033,-1.53077,-239.521,-1.63431,-239.535,-244.803,0.151961,25,6432,3
-66.5622,0.0526889,-0.0240236,-1.09101,-3.29265,-65.1007,0.536719,-65.1841,-68.1066,0.151961,25,6433,3
-238.875,0.0272371,-0.167517,-1.83141,-2.00957,-228.456,-1.8016,-228.482,-238.879,0.215295,25,6434,3
-64.9121,0.0729183,-0.0482861,-1.15179,-4.79205,-61.9545,1.01366,-62.1477,-66.8844,0.215295,25,6435,3
-244.79,0.0763227,-0.259835,-1.65033,-1.52905,-239.533,-1.63431,-239.535,-244.803,0.151961,25,6436,3
-66.5591,0.162773,-0.0715607,-1.09101,-3.28904,-65.1039,0.536719,-65.1841,-68.1066,0.151961,25,6437,3
-238.852,0.104254,-0.513905,-1.83141,-2.00705,-228.478,-1.8016,-228.482,-238.879,0.215295,25,6438,3
-64.9057,0.240653,-0.145146,-1.15179,-4.78656,-61.9609,1.01366,-62.1477,-66.8844,0.215295,25,6439,3
66.934,0.0535518,0.0238444,-0.621816,-3.34846,65.4768,66.9347,65.6886,-0.834277,0.0759804,25,6440,3
155.977,0.0435843,0.0553971,-0.328569,-2.73196,152.585,155.978,152.638,-0.382616,0.0759804,25,6441,3
65.2862,0.0746631,0.047869,-0.554138,-4.89778,62.3436,65.2875,62.8189,-1.03072,0.107648,25,6442,3
152.149,0.0582374,0.11071,-0.179819,-3.89345,145.33,152.151,145.443,-0.295239,0.107648,25,6443,3
66.9309,0.165563,0.071465,-0.621816,-3.3448,65.4799,66.9347,65.6886,-0.834277,0.0759804,25,6444,3
155.97,0.135188,0.166433,-0.328569,-2.72896,152.593,155.978,152.638,-0.382616,0.0759804,25,6445,3
65.2799,0.245827,0.144584,-0.554138,-4.89217,62.35,65.2875,62.8189,-1.03072,0.107648,25,6446,3
152.134,0.196531,0.335263,-0.179819,-3.88893,145.345,152.151,145.443,-0.295239,0.107648,25,6447,3
222.823,0.0309362,0.0788064,-0.140678,-1.95241,217.986,222.825,218.003,-0.159462,0.0379902,25,6448,3
267.448,0.0194821,0.0937517,-0.0259876,-1.25182,261.668,267.45,261.672,-0.0326347,0.0379902,25,6449,3
217.393,0.0378067,0.155866,0.0611439,-2.64614,207.757,217.397,207.79,0.0256068,0.0538238,25,6450,3
260.982,0.0200288,0.183461,0.19515,-1.56458,249.581,260.986,249.587,0.184598,0.0538238,25,6451,3
222.813,0.0968236,0.237562,-0.140678,-1.95025,217.997,222.825,218.003,-0.159462,0.0379902,25,6452,3
267.436,0.0624324,0.284329,-0.0259876,-1.25041,261.68,267.45,261.672,-0.0326347,0.0379902,25,6453,3
217.373,0.13534,0.474344,0.0611439,-2.64294,207.778,217.397,207.79,0.0256068,0.0538238,25,6454,3
260.957,0.0823424,0.562185,0.19515,-1.56254,249.606,260.986,249.587,0.184598,0.0538238,25,6455,3
300.956,0.00932777,0.104374,0.0572082,-0.634153,294.488,300.959,294.487,0.0557108,0.0189951,25,6456,3
323.326,0.00163784,0.110758,0.1189,-0.168069,316.423,323.328,316.421,0.118675,0.0189951,25,6457,3
293.725,0.00494197,0.202712,0.280866,-0.648734,281.065,293.73,281.063,0.278459,0.0269119,25,6458,3
315.592,-0.00588682,0.21427,0.332781,0.00939522,302.15,315.597,302.148,0.330161,0.0269119,25,6459,3
300.942,0.0321678,0.318681,0.0572082,-0.633405,294.502,300.959,294.487,0.0557108,0.0189951,25,6460,3
323.311,0.00935788,0.34069,0.1189,-0.167816,316.438,323.328,316.421,0.118675,0.0189951,25,6461,3
293.698,0.0374978,0.625267,0.280866,-0.647668,281.093,293.73,281.063,0.278459,0.0269119,25,6462,3
315.563,0.00525973,0.664882,0.332781,0.00976012,302.179,315.597,302.148,0.330161,0.0269119,25,6463,3
-224.919,0.0515079,-0.354053,-1.84793,-3.1525,-203.047,-1.7565,-203.13,-224.927,0.620593,25,6464,3
-61.1374,0.109211,-0.0979491,-1.14883,-6.69226,-55.1161,1.85108,-55.603,-63.6504,0.620593,25,6465,3
-200.409,0.0788714,-0.698118,-1.57028,-4.51474,-157.789,-1.32493,-158.019,-200.425,0.873929,25,6466,3
-54.4932,0.155925,-0.19022,-1.09957,-9.23626,-42.8791,3.31703,-44.0323,-57.7567,0.873929,25,6467,3
-224.871,0.154786,-1.07642,-1.84793,-3.14912,-203.094,-1.7565,-203.13,-224.927,0.620593,25,6468,3
-61.1245,0.328718,-0.295861,-1.14883,-6.68508,-55.1291,1.85108,-55.603,-63.6504,0.620593,25,6469,3
-200.318,0.216575,-2.08939,-1.57028,-4.51023,-157.88,-1.32493,-158.019,-200.425,0.873929,25,6470,3
-54.4684,0.448489,-0.569381,-1.09957,-9.22668,-42.904,3.31703,-44.0323,-57.7567,0.873929,25,6471,3
61.4886,0.111237,0.0980308,-0.561027,-6.81468,55.4566,61.5015,56.577,-1.69426,0.310296,25,6472,3
143.291,0.0905755,0.227878,-0.190504,-5.55045,129.257,143.296,129.557,-0.495453,0.310296,25,6473,3
54.8124,0.158593,0.190916,-0.617072,-9.39973,43.1554,54.8893,45.5802,-3.11891,0.436965,25,6474,3
127.718,0.131025,0.444987,-0.329553,-7.71206,100.55,127.728,101.286,-1.07573,0.436965,25,6475,3
61.4756,0.334703,0.296474,-0.561027,-6.80736,55.4696,61.5015,56.577,-1.69426,0.310296,25,6476,3
143.261,0.272635,0.689931,-0.190504,-5.54449,129.288,143.296,129.557,-0.495453,0.310296,25,6477,3
54.7874,0.456518,0.571488,-0.617072,-9.38998,43.1803,54.8893,45.5802,-3.11891,0.436965,25,6478,3
127.66,0.373649,1.33192,-0.329553,-7.70412,100.608,127.728,101.286,-1.07573,0.436965,25,6479,3
204.72,0.0647371,0.324044,0.0540188,-3.96792,184.737,204.727,184.838,-0.054076,0.155148,25,6480,3
245.742,0.0419528,0.386813,0.199484,-2.56999,221.85,245.751,221.881,0.159832,0.155148,25,6481,3
182.449,0.0965611,0.635568,-0.167575,-5.60068,143.649,182.463,143.916,-0.448808,0.218482,25,6482,3
218.98,0.066137,0.762476,-0.100228,-3.737,172.433,218.997,172.53,-0.214318,0.218482,25,6483,3
204.677,0.194916,0.982885,0.0540188,-3.96366,184.78,204.727,184.838,-0.054076,0.155148,25,6484,3
245.69,0.126222,1.1758,0.199484,-2.56723,221.901,245.751,221.881,0.159832,0.155148,25,6485,3
182.366,0.269948,1.90214,-0.167575,-5.595,143.732,182.463,143.916,-0.448808,0.218482,25,6486,3
218.881,0.178416,2.28187,-0.100228,-3.73333,172.532,218.997,172.53,-0.214318,0.218482,25,6487,3
276.548,0.0221838,0.433178,0.298733,-1.35613,249.753,276.558,249.754,0.288463,0.0775741,25,6488,3
297.113,0.00751647,0.463513,0.363304,-0.455627,268.408,297.123,268.4,0.361281,0.0775741,25,6489,3
246.406,0.0396613,0.857486,-0.0712697,-2.11924,194.057,246.424,194.075,-0.107996,0.109241,25,6490,3
264.709,0.0199233,0.920588,-0.0626074,-0.919144,208.504,264.729,208.494,-0.0720732,0.109241,25,6491,3
276.49,0.0665591,1.31923,0.298733,-1.35468,249.811,276.558,249.754,0.288463,0.0775741,25,6492,3
297.051,0.022299,1.41381,0.363304,-0.455143,268.47,297.123,268.4,0.361281,0.0775741,25,6493,3
246.294,0.0990284,2.56626,-0.0712697,-2.11729,194.169,246.424,194.075,-0.107996,0.109241,25,6494,3
264.588,0.0402342,2.75536,-0.0626074,-0.918479,208.624,264.729,208.494,-0.0720732,0.109241,25,6495,3
-177.729,0.0801728,-1.02395,-1.41578,-5.1922,-115.341,-1.02598,-115.708,-177.751,0.531966,25,6496,3
-48.3375,0.183537,-0.277228,-1.05601,-11.4857,-31.4253,4.93065,-33.4871,-52.2624,0.531966,25,6497,3
-159.43,0.098934,-1.27911,-1.57626,-5.98073,-81.2995,-0.853127,-81.9947,-159.458,0.5953,25,6498,3
-43.3452,0.208466,-0.347771,-1.1217,-12.658,-22.0873,6.4507,-25.3872,-47.6177,0.5953,25,6499,3
-177.596,0.259585,-3.05647,-1.41578,-5.18633,-115.474,-1.02598,-115.708,-177.751,0.531966,25,6500,3
-48.3014,0.568057,-0.82889,-1.05601,-11.4731,-31.4614,4.93065,-33.4871,-52.2624,0.531966,25,6501,3
-159.263,0.292436,-3.83086,-1.57626,-5.9744,-81.4667,-0.853127,-81.9947,-159.458,0.5953,25,6502,3
-43.2997,0.619854,-1.04256,-1.1217,-12.6445,-22.1328,6.4507,-25.3872,-47.6177,0.5953,25,6503,3
48.6285,0.187349,0.278529,-0.667099,-11.7189,31.641,48.6346,35.8873,-4.91951,0.265983,25,6504,3
113.297,0.150104,0.649891,-0.440408,-9.44759,73.6675,113.311,74.9484,-1.73549,0.265983,25,6505,3
43.6205,0.212293,0.349197,-0.600064,-12.8931,22.2796,43.6282,28.485,-6.81318,0.29765,25,6506,3
101.627,0.173275,0.814139,-0.295367,-10.5074,51.8766,101.645,54.0819,-2.51844,0.29765,25,6507,3
48.5922,0.579502,0.832511,-0.667099,-11.706,31.6773,48.6346,35.8873,-4.91951,0.265983,25,6508,3
113.212,0.468119,1.94201,-0.440408,-9.43718,73.7522,113.311,74.9484,-1.73549,0.265983,25,6509,3
43.5748,0.631412,1.04657,-0.600064,-12.8794,22.3253,43.6282,28.485,-6.81318,0.29765,25,6510,3
101.521,0.514313,2.4397,-0.295367,-10.4962,51.9831,101.645,54.0819,-2.51844,0.29765,25,6511,3
161.834,0.103775,0.929919,-0.31911,-6.62579,105.151,161.854,105.572,-0.761153,0.132991,25,6512,3
194.214,0.0633708,1.1181,-0.275319,-4.16958,126.089,194.238,126.218,-0.428484,0.132991,25,6513,3
145.178,0.12443,1.16322,-0.13243,-7.52451,74.1072,145.203,74.8942,-0.944825,0.148825,25,6514,3
174.24,0.0812386,1.3965,-0.0854123,-4.89575,88.9362,174.271,89.2078,-0.387566,0.148825,25,6515,3
161.713,0.329795,2.77735,-0.31911,-6.61839,105.272,161.854,105.572,-0.761153,0.132991,25,6516,3
194.068,0.209469,3.33748,-0.275319,-4.1648,126.235,194.238,126.218,-0.428484,0.132991,25,6517,3
145.026,0.367962,3.48502,-0.13243,-7.51654,74.2594,145.203,74.8942,-0.944825,0.148825,25,6518,3
174.058,0.239133,4.18266,-0.0854123,-4.89058,89.1188,174.271,89.2078,-0.387566,0.148825,25,6519,3
218.515,0.0288039,1.25985,-0.262915,-2.07496,141.779,218.543,141.787,-0.298264,0.0664957,25,6520,3
234.727,0.00360261,1.35465,-0.266031,-0.55399,152.232,234.756,152.209,-0.272065,0.0664957,25,6521,3
196.053,0.0436888,1.57181,-0.0867472,-2.6191,100.061,196.088,100.107,-0.166436,0.0744125,25,6522,3
210.604,0.015709,1.68894,-0.112946,-0.932881,107.476,210.64,107.453,-0.12588,0.0744125,25,6523,3
218.352,0.106966,3.75898,-0.262915,-2.0724,141.943,218.543,141.787,-0.298264,0.0664957,25,6524,3
234.551,0.0326378,4.0408,-0.266031,-0.553039,152.408,234.756,152.209,-0.272065,0.0664957,25,6525,3
195.848,0.127702,4.70639,-0.0867472,-2.61635,100.267,196.088,100.107,-0.166436,0.0744125,25,6526,3
210.383,0.0453379,5.05591,-0.112946,-0.931911,107.697,210.64,107.453,-0.12588,0.0744125,25,6527,3
-144.53,0.100964,-1.48858,-1.54698,-6.36863,-53.6158,-0.359558,-54.7708,-144.562,0.3214,25,6528,3
-39.2857,0.222254,-0.40433,-1.0902,-13.7657,-14.573,8.43275,-19.497,-43.8846,0.3214,25,6529,3
-133.791,0.112175,-1.63935,-1.57184,-6.84622,-33.6078,0.482249,-35.6261,-133.826,0.337234,25,6530,3
-36.3605,0.236623,-0.443823,-0.96696,-14.438,-9.23494,10.3562,-15.778,-41.1406,0.337234,25,6531,3
-144.335,0.31578,-4.45749,-1.54698,-6.3616,-53.8104,-0.359558,-54.7708,-144.562,0.3214,25,6532,3
-39.2328,0.678543,-1.21196,-1.0902,-13.7508,-14.6259,8.43275,-19.497,-43.8846,0.3214,25,6533,3
-133.576,0.335829,-4.91292,-1.57184,-6.8389,-33.8224,0.482249,-35.6261,-133.826,0.337234,25,6534,3
-36.3024,0.708174,-1.33027,-0.96696,-14.4226,-9.29304,10.3562,-15.778,-41.1406,0.337234,25,6535,3
39.5542,0.226254,0.406116,-0.602168,-14.0125,14.7371,39.5631,23.2742,-9.14808,0.1607,25,6536,3
92.1425,0.183197,0.94673,-0.324174,-11.3736,34.2923,92.1631,37.8487,-3.9012,0.1607,25,6537,3
36.6148,0.238547,0.450087,-0.440971,-14.5604,9.10534,36.6307,19.778,-11.1295,0.168617,25,6538,3
85.3195,0.192872,1.04439,-0.184687,-11.7643,21.4918,85.3423,26.8294,-5.54508,0.168617,25,6539,3
39.501,0.690692,1.217,-0.602168,-13.9973,14.7903,39.5631,23.2742,-9.14808,0.1607,25,6540,3
92.0186,0.561062,2.83685,-0.324174,-11.3612,34.4162,92.1631,37.8487,-3.9012,0.1607,25,6541,3
36.5559,0.714259,1.34912,-0.440971,-14.5448,9.16426,36.6307,19.778,-11.1295,0.168617,25,6542,3
85.1828,0.576964,3.13013,-0.184687,-11.7517,21.6286,85.3423,26.8294,-5.54508,0.168617,25,6543,3
131.628,0.129151,1.35281,-0.177743,-8.07024,48.9757,131.657,50.2832,-1.51472,0.0803501,25,6544,3
157.973,0.0812611,1.6249,-0.12683,-5.15703,58.7268,158.009,59.1712,-0.606675,0.0803501,25,6545,3
121.909,0.13716,1.48958,-0.0594784,-8.36091,30.8754,121.942,33.0485,-2.26519,0.0843085,25,6546,3
146.342,0.0886554,1.78647,-0.0218075,-5.40495,37.1655,146.381,37.9567,-0.852026,0.0843085,25,6547,3
131.451,0.398944,4.05289,-0.177743,-8.0614,49.1527,131.657,50.2832,-1.51472,0.0803501,25,6548,3
157.761,0.256199,4.86614,-0.12683,-5.1513,58.9392,158.009,59.1712,-0.606675,0.0803501,25,6549,3
121.714,0.409963,4.46432,-0.0594784,-8.35198,31.0703,121.942,33.0485,-2.26519,0.0843085,25,6550,3
146.108,0.265035,5.354,-0.0218075,-5.39917,37.3993,146.381,37.9567,-0.852026,0.0843085,25,6551,3
177.741,0.0397747,1.83001,-0.114366,-2.64799,66.0019,177.781,66.0765,-0.22894,0.040175,25,6552,3
190.919,0.00944736,1.96776,-0.123901,-0.818225,70.805,190.962,70.7779,-0.139739,0.040175,25,6553,3
164.684,0.0468713,2.00957,-0.0182073,-2.86182,41.8801,164.727,42.0476,-0.229328,0.0421542,25,6554,3
176.912,0.0156684,2.15887,-0.0443346,-0.988139,44.9973,176.959,44.9811,-0.075129,0.0421542,25,6555,3
177.502,0.133497,5.47811,-0.114366,-2.64492,66.241,177.781,66.0765,-0.22894,0.040175,25,6556,3
190.662,0.0440874,5.88807,-0.123901,-0.817091,71.0619,190.962,70.7779,-0.139739,0.040175,25,6557,3
164.421,0.140401,6.02216,-0.0182073,-2.85875,42.1431,164.727,42.0476,-0.229328,0.0421542,25,6558,3
176.63,0.0489925,6.46877,-0.0443346,-0.987048,45.2798,176.959,44.9811,-0.075129,0.0421542,25,6559,3
-125.373,0.117249,-1.76062,-1.59538,-7.2188,-17.7874,1.87701,-21.2214,-125.412,0.174555,25,6560,3
-34.2335,0.24638,-0.471879,-1.12098,-15.096,-5.39335,12.1169,-13.63,-39.2347,0.174555,25,6561,3
-119.685,0.113552,-1.84345,-1.96392,-6.97026,-7.02973,3.33661,-12.29,-119.725,0.178513,25,6562,3
-33.0932,0.24494,-0.501581,-2.8317,-14.9915,-2.44874,12.4143,-12.4406,-38.3473,0.178513,25,6563,3
-125.143,0.355134,-5.27584,-1.59538,-7.21101,-18.0178,1.87701,-21.2214,-125.412,0.174555,25,6564,3
-34.1717,0.741476,-1.41436,-1.12098,-15.0798,-5.45512,12.1169,-13.63,-39.2347,0.174555,25,6565,3
-119.444,0.342568,-5.52455,-1.96392,-6.96276,-7.271,3.33661,-12.29,-119.725,0.178513,25,6566,3
-33.0275,0.736073,-1.50266,-2.8317,-14.9754,-2.51435,12.4143,-12.4406,-38.3473,0.178513,25,6567,3
34.1684,0.245689,0.487767,-0.542244,-15.0691,4.35001,34.1849,17.1995,-13.4082,0.0872773,25,6568,3
79.9399,0.195398,1.1219,-0.178736,-11.9914,11.3578,79.9641,18.9896,-7.83476,0.0872773,25,6569,3
31.9911,0.258507,0.500581,-2.82494,-15.8901,1.33943,32.0154,15.2756,-16.7854,0.0892564,25,6570,3
75.6882,0.213024,1.17276,-1.82403,-13.1632,3.89141,75.7153,14.5171,-12.4769,0.0892564,25,6571,3
34.1045,0.740405,1.46245,-0.542244,-15.0529,4.41389,34.1849,17.1995,-13.4082,0.0872773,25,6572,3
79.7929,0.589295,3.36358,-0.178736,-11.9785,11.5047,79.9641,18.9896,-7.83476,0.0872773,25,6573,3
31.9253,0.781306,1.50412,-2.82494,-15.8729,1.4052,32.0154,15.2756,-16.7854,0.0892564,25,6574,3
75.5341,0.648344,3.52295,-1.82403,-13.1489,4.04545,75.7153,14.5171,-12.4769,0.0892564,25,6575,3
114.387,0.136167,1.59369,-0.0263066,-8.35814,16.9706,114.421,20.4409,-3.531,0.0436386,25,6576,3
137.408,0.0859542,1.90712,-0.00575912,-5.30197,20.8511,137.45,22.1539,-1.35048,0.0436386,25,6577,3
108.795,0.147334,1.6704,-0.751755,-9.14286,6.53838,108.833,12.8367,-7.08792,0.0446282,25,6578,3
131.118,0.0900556,1.99177,-0.216219,-5.57368,9.2643,131.16,12.0327,-3.02718,0.0446282,25,6579,3
114.178,0.410773,4.77762,-0.0263066,-8.34915,17.1793,114.421,20.4409,-3.531,0.0436386,25,6580,3
137.158,0.260995,5.71604,-0.00575912,-5.29623,21.1008,137.45,22.1539,-1.35048,0.0436386,25,6581,3
108.576,0.450953,5.0175,-0.751755,-9.13292,6.75776,108.833,12.8367,-7.08792,0.0446282,25,6582,3
130.856,0.274673,5.9778,-0.216219,-5.56764,9.52556,131.16,12.0327,-3.02718,0.0446282,25,6583,3
154.697,0.0430589,2.14225,-0.00604522,-2.73477,23.7796,154.746,24.0637,-0.338228,0.0218193,25,6584,3
166.209,0.0136688,2.30051,-0.0522838,-0.913316,25.6535,166.259,25.6558,-0.105037,0.0218193,25,6585,3
147.991,0.04406,2.22723,0.032471,-2.69206,11.8759,148.037,12.4942,-0.631831,0.0223141,25,6586,3
159.186,0.0123052,2.38204,-0.138171,-0.908888,13.7106,159.24,13.8722,-0.353987,0.0223141,25,6587,3
154.417,0.135896,6.42017,-0.00604522,-2.73173,24.06,154.746,24.0637,-0.338228,0.0218193,25,6588,3
165.908,0.0460943,6.89225,-0.0522838,-0.912255,25.9544,166.259,25.6558,-0.105037,0.0218193,25,6589,3
147.7,0.132103,6.67514,0.032471,-2.68918,12.1674,148.037,12.4942,-0.631831,0.0223141,25,6590,3
158.875,0.0471653,7.1325,-0.138171,-0.907746,14.022,159.24,13.8722,-0.353987,0.0223141,25,6591,3
-115.616,0.0965186,-1.90415,-2.4416,-5.88764,0.252202,5.09622,-7.24401,-115.657,0.0922591,25,6592,3
-32.4473,0.215231,-0.541022,-5.81057,-13.1663,0.491459,10.9194,-11.0503,-37.6354,0.0922591,25,6593,3
-113.079,0.0752289,-1.92281,-2.38451,-4.57291,3.91319,6.59699,-5.02629,-113.121,0.0932817,25,6594,3
-31.9502,0.162858,-0.563465,-7.54231,-9.87475,2.34928,8.50696,-9.22007,-36.4301,0.0932817,25,6595,3
-115.369,0.288758,-5.67405,-2.4416,-5.88135,0.00510877,5.09622,-7.24401,-115.657,0.0922591,25,6596,3
-32.377,0.646349,-1.61329,-5.81057,-13.1522,0.421179,10.9194,-11.0503,-37.6354,0.0922591,25,6597,3
-112.829,0.224015,-5.72889,-2.38451,-4.56804,3.66373,6.59699,-5.02629,-113.121,0.0932817,25,6598,3
-31.877,0.48333,-1.67985,-7.54231,-9.86425,2.27611,8.50696,-9.22007,-36.4301,0.0932817,25,6599,3
29.817,0.257189,0.472832,-8.80299,-15.7764,1.12245,29.8303,12.7352,-20.429,0.0461296,25,6600,3
71.3795,0.256679,1.18066,-8.82122,-15.9008,-0.320807,71.4186,11.9179,-21.0991,0.0461296,25,6601,3
28.4319,0.195589,0.420092,-14.6672,-11.7031,2.93151,28.4479,8.89482,-20.6464,0.0466408,25,6602,3
67.7645,0.237702,1.08607,-21.789,-13.622,1.98758,67.8596,8.50862,-28.405,0.0466408,25,6603,3
29.7559,0.775189,1.40391,-8.80299,-15.7595,1.18347,29.8303,12.7352,-20.429,0.0461296,25,6604,3
71.2269,0.783835,3.50883,-8.82122,-15.8836,-0.16821,71.4186,11.9179,-21.0991,0.0461296,25,6605,3
28.3777,0.570251,1.24774,-14.6672,-11.6909,2.98576,28.4479,8.89482,-20.6464,0.0466408,25,6606,3
67.6249,0.653731,3.21603,-21.789,-13.6084,2.12719,67.8596,8.50862,-28.405,0.0466408,25,6607,3
103.02,0.214861,1.73707,-6.07199,-13.6253,-2.52638,103.091,9.46139,-18.1307,0.0230648,25,6608,3
124.889,0.134123,2.10012,-2.59873,-8.99773,-2.82437,124.984,6.58933,-12.1073,0.0230648,25,6609,3
96.3415,0.312282,1.62645,-27.7074,-17.0289,-1.91306,96.6849,7.30294,-37.2668,0.0233204,25,6610,3
114.953,0.407372,2.04508,-29.4679,-20.9763,-8.60704,116.044,5.96275,-45.1288,0.0233204,25,6611,3
102.795,0.676738,5.16607,-6.07199,-13.6102,-2.30163,103.091,9.46139,-18.1307,0.0230648,25,6612,3
124.617,0.454644,6.2528,-2.59873,-8.98724,-2.55219,124.984,6.58933,-12.1073,0.0230648,25,6613,3
96.1335,0.802129,4.79986,-27.7074,-17.0128,-1.70506,96.6849,7.30294,-37.2668,0.0233204,25,6614,3
114.691,0.96542,6.03632,-29.4679,-20.9581,-8.34544,116.044,5.96275,-45.1288,0.0233204,25,6615,3
142.066,0.0472394,2.32315,-0.676695,-3.93143,0.474688,142.169,5.59575,-5.90138,0.0115324,25,6616,3
153.13,0.0215207,2.46442,-1.61754,-2.06673,3.10257,153.284,8.77274,-7.44193,0.0115324,25,6617,3
128.734,0.475393,2.43757,-26.5077,-22.8947,-18.8624,131.149,6.07437,-53.8596,0.0116602,25,6618,3
138.473,0.424124,2.73004,-20.0946,-17.4279,-28.4147,142.955,6.59839,-59.5896,0.0116602,25,6619,3
141.763,0.20999,6.93739,-0.676695,-3.9261,0.777122,142.169,5.59575,-5.90138,0.0115324,25,6620,3
152.81,0.113696,7.34793,-1.61754,-2.06371,3.42266,153.284,8.77274,-7.44193,0.0115324,25,6621,3
128.421,1.02301,7.21588,-26.5077,-22.8768,-18.5492,131.149,6.07437,-53.8596,0.0116602,25,6622,3
138.115,0.716621,8.18492,-20.0946,-17.4183,-28.0572,142.955,6.59839,-59.5896,0.0116602,25,6623,3
-250.952,0.0112156,-0.00350022,-1.6153,-0.137525,-250.91,-1.61518,-250.909,-250.952,0.00167713,25,6624,3
-68.2555,0.0239683,-0.00095935,-1.10911,-0.29307,-68.2439,-0.183942,-68.2445,-69.1802,0.00167713,25,6625,3
-250.881,0.0175878,-0.00842694,-1.61512,-0.214982,-250.779,-1.61482,-250.779,-250.882,0.00266631,25,6626,3
-68.2361,0.0374887,-0.00230787,-1.10918,-0.457845,-68.2082,-0.170956,-68.2096,-69.173,0.00266631,25,6627,3
-250.952,0.0157997,-0.00487678,-1.6153,-0.137071,-250.91,-1.61517,-250.909,-250.952,0.00167713,25,6628,3
-68.2554,0.0336359,-0.00133524,-1.10911,-0.292115,-68.244,-0.183943,-68.2445,-69.1802,0.00167713,25,6629,3
-250.88,0.0246872,-0.0117336,-1.61512,-0.214287,-250.78,-1.61482,-250.779,-250.882,0.00266631,25,6630,3
-68.236,0.0525491,-0.00321174,-1.10918,-0.456365,-68.2084,-0.170956,-68.2096,-69.173,0.00266631,25,6631,3
68.6293,0.0244172,0.000960201,-0.607236,-0.298548,68.6177,68.6294,68.6192,-0.608878,0.000838566,25,6632,3
159.923,0.0198507,0.00223949,-0.305328,-0.242852,159.896,159.923,159.896,-0.305738,0.000838566,25,6633,3
68.6099,0.0382207,0.00231352,-0.60706,-0.466694,68.5819,68.6101,68.5856,-0.611001,0.00133315,25,6634,3
159.877,0.0310656,0.00538597,-0.305221,-0.379455,159.812,159.878,159.813,-0.306201,0.00133315,25,6635,3
68.6292,0.0342677,0.00133716,-0.607235,-0.297575,68.6177,68.6294,68.6192,-0.608877,0.000838566,25,6636,3
159.923,0.0278779,0.00311874,-0.305329,-0.242058,159.896,159.923,159.896,-0.305739,0.000838566,25,6637,3
68.6097,0.0535569,0.00321975,-0.60706,-0.465188,68.5821,68.6101,68.5856,-0.611001,0.00133315,25,6638,3
159.877,0.0435556,0.00749659,-0.30522,-0.378229,159.813,159.878,159.813,-0.306201,0.00133315,25,6639,3
228.449,0.0141462,0.00319987,-0.128623,-0.173271,228.41,228.449,228.41,-0.128763,0.000419283,25,6640,3
274.177,0.00912906,0.0038301,-0.0495691,-0.11207,274.13,274.177,274.13,-0.0496204,0.000419283,25,6641,3
228.384,0.0221496,0.00767753,-0.128872,-0.270669,228.291,228.385,228.291,-0.129207,0.000666576,25,6642,3
274.099,0.0143286,0.00919894,-0.0502438,-0.175221,273.988,274.1,273.987,-0.0503645,0.000666576,25,6643,3
228.449,0.0198993,0.00445723,-0.128623,-0.172701,228.41,228.449,228.41,-0.128764,0.000419283,25,6644,3
274.176,0.0128795,0.00533536,-0.049571,-0.111697,274.13,274.177,274.13,-0.0496223,0.000419283,25,6645,3
228.384,0.0310769,0.0106861,-0.128872,-0.269794,228.292,228.385,228.291,-0.129207,0.000666576,25,6646,3
274.098,0.0201271,0.0128071,-0.0502437,-0.174654,273.988,274.1,273.987,-0.0503645,0.000666576,25,6647,3
308.498,0.0048101,0.0042991,-0.0128831,-0.0593394,308.446,308.498,308.445,-0.0128969,0.000209641,25,6648,3
331.394,0.0016224,0.00457953,-0.00186489,-0.0204955,331.338,331.394,331.338,-0.00186798,0.000209641,25,6649,3
308.41,0.00759388,0.0103611,-0.013774,-0.0929968,308.285,308.411,308.284,-0.0138049,0.000333288,25,6650,3
331.3,0.00258513,0.0110907,-0.00213332,-0.0318484,331.166,331.301,331.165,-0.00213864,0.000333288,25,6651,3
308.497,0.00682969,0.00598998,-0.0128778,-0.059142,308.446,308.498,308.445,-0.0128915,0.000209641,25,6652,3
331.393,0.0023705,0.006384,-0.00186569,-0.0204266,331.338,331.394,331.338,-0.00186879,0.000209641,25,6653,3
308.409,0.0106896,0.0144244,-0.0137744,-0.0926954,308.285,308.411,308.284,-0.0138053,0.000333288,25,6654,3
331.299,0.00367403,0.0154646,-0.00213514,-0.0317418,331.167,331.301,331.165,-0.00214046,0.000333288,25,6655,3
-250.702,0.027557,-0.0208681,-1.61581,-0.336515,-250.449,-1.61507,-250.448,-250.704,0.00830233,25,6656,3
-68.1872,0.0588929,-0.00572264,-1.10928,-0.718728,-68.1179,-0.140948,-68.121,-69.1523,0.00830233,25,6657,3
-250.366,0.0401826,-0.0441633,-1.61445,-0.492342,-249.831,-1.61289,-249.828,-250.369,0.0122607,25,6658,3
-68.0951,0.085867,-0.0120472,-1.10793,-1.0501,-67.9493,-0.0848245,-67.9562,-69.1113,0.0122607,25,6659,3
-250.7,0.038623,-0.0291072,-1.6158,-0.335425,-250.451,-1.61507,-250.448,-250.704,0.00830233,25,6660,3
-68.1867,0.0824551,-0.00796904,-1.10928,-0.716407,-68.1183,-0.140948,-68.121,-69.1523,0.00830233,25,6661,3
-250.362,0.0566407,-0.0615793,-1.61445,-0.490721,-249.834,-1.61289,-249.828,-250.369,0.0122607,25,6662,3
-68.0942,0.120648,-0.0167728,-1.10793,-1.04668,-67.9502,-0.0848245,-67.9562,-69.1113,0.0122607,25,6663,3
68.5606,0.0599585,0.00575154,-0.60705,-0.731843,68.491,68.5611,68.5003,-0.616817,0.00415116,25,6664,3
159.763,0.048739,0.0133519,-0.304829,-0.594906,159.601,159.764,159.603,-0.30726,0.00415116,25,6665,3
68.4683,0.0874582,0.0120709,-0.608432,-1.06945,68.3222,68.4693,68.3418,-0.629114,0.00613036,25,6666,3
159.548,0.0711672,0.0281672,-0.306771,-0.870577,159.207,159.55,159.21,-0.311931,0.00613036,25,6667,3
68.5602,0.0839687,0.00801237,-0.60705,-0.729478,68.4914,68.5611,68.5003,-0.616817,0.00415116,25,6668,3
159.762,0.0682576,0.0186135,-0.304829,-0.592984,159.602,159.764,159.603,-0.30726,0.00415116,25,6669,3
68.4674,0.122861,0.0168138,-0.608432,-1.06596,68.3231,68.4693,68.3418,-0.629114,0.00613036,25,6670,3
159.546,0.100041,0.0392455,-0.306771,-0.867733,159.209,159.55,159.21,-0.311931,0.00613036,25,6671,3
228.221,0.0347324,0.019023,-0.128335,-0.424011,227.991,228.223,227.99,-0.129164,0.00207558,25,6672,3
273.903,0.0224821,0.0227821,-0.0499424,-0.274439,273.627,273.905,273.626,-0.0502405,0.00207558,25,6673,3
227.913,0.0507951,0.040293,-0.13139,-0.62175,227.426,227.917,227.424,-0.133158,0.00306518,25,6674,3
273.535,0.0328739,0.048382,-0.052608,-0.402784,272.949,273.539,272.945,-0.053245,0.00306518,25,6675,3
228.22,0.0486551,0.026523,-0.128335,-0.42264,227.992,228.223,227.99,-0.129164,0.00207558,25,6676,3
273.902,0.0314898,0.0317651,-0.0499424,-0.273551,273.629,273.905,273.626,-0.0502405,0.00207558,25,6677,3
227.91,0.0714783,0.0561348,-0.13139,-0.619713,227.429,227.917,227.424,-0.133158,0.00306518,25,6678,3
273.531,0.046337,0.0674175,-0.052608,-0.401458,272.952,273.539,272.945,-0.053245,0.00306518,25,6679,3
308.19,0.0119427,0.025619,-0.0136446,-0.145733,307.88,308.192,307.878,-0.0137203,0.00103779,25,6680,3
331.064,0.0040834,0.0274148,-0.000887275,-0.049855,330.732,331.067,330.729,-0.000899239,0.00103779,25,6681,3
307.777,0.0172196,0.0543458,-0.0138718,-0.211565,307.119,307.782,307.114,-0.0140302,0.00153259,25,6682,3
330.625,0.00544096,0.0577182,0.00251103,-0.0680267,329.924,330.63,329.92,0.00248759,0.00153259,25,6683,3
308.188,0.0167176,0.0357233,-0.0136445,-0.145263,307.882,308.192,307.878,-0.0137202,0.00103779,25,6684,3
331.062,0.00572069,0.0382886,-0.000887173,-0.0496939,330.734,331.067,330.729,-0.000899137,0.00103779,25,6685,3
307.773,0.0243855,0.0757816,-0.0138718,-0.21086,307.123,307.782,307.114,-0.0140302,0.00153259,25,6686,3
330.62,0.00793493,0.0806892,0.00251104,-0.067781,329.929,330.63,329.92,0.00248759,0.00153259,25,6687,3
-249.57,0.0601186,-0.0991834,-1.61811,-0.736088,-248.368,-1.61457,-248.363,-249.579,0.0363966,25,6688,3
-67.8775,0.128399,-0.0272714,-1.10822,-1.56928,-67.5474,0.0252236,-67.5627,-68.9956,0.0363966,25,6689,3
-248.125,0.0832783,-0.199508,-1.63049,-1.02985,-245.704,-1.62348,-245.695,-248.142,0.0522301,25,6690,3
-67.4735,0.183579,-0.0555757,-1.10017,-2.25427,-66.8012,0.21191,-66.8331,-68.7536,0.0522301,25,6691,3
-249.563,0.0846402,-0.138504,-1.61811,-0.733673,-248.375,-1.61457,-248.363,-249.579,0.0363966,25,6692,3
-67.8754,0.18022,-0.0379704,-1.10822,-1.56418,-67.5495,0.0252236,-67.5627,-68.9956,0.0363966,25,6693,3
-248.109,0.119235,-0.278862,-1.63049,-1.0263,-245.72,-1.62348,-245.695,-248.142,0.0522301,25,6694,3
-67.4691,0.259735,-0.0772896,-1.10017,-2.24677,-66.8055,0.21191,-66.8331,-68.7536,0.0522301,25,6695,3
68.2502,0.130578,0.027307,-0.60839,-1.59636,67.9195,68.2525,67.9639,-0.655077,0.0181983,25,6696,3
159.041,0.106342,0.0633185,-0.306996,-1.30003,158.273,159.046,158.28,-0.318676,0.0181983,25,6697,3
67.8476,0.186435,0.0553852,-0.612844,-2.28962,67.177,67.8523,67.2683,-0.708879,0.0261151,25,6698,3
158.105,0.15166,0.128745,-0.314018,-1.86404,156.545,158.115,156.559,-0.338091,0.0261151,25,6699,3
68.2481,0.183366,0.0380578,-0.60839,-1.59116,67.9216,68.2525,67.9639,-0.655077,0.0181983,25,6700,3
159.036,0.149325,0.088322,-0.306996,-1.2958,158.278,159.046,158.28,-0.318676,0.0181983,25,6701,3
67.8433,0.26383,0.0771581,-0.612844,-2.282,67.1813,67.8523,67.2683,-0.708879,0.0261151,25,6702,3
158.095,0.214911,0.179447,-0.314018,-1.85781,156.555,158.115,156.559,-0.338091,0.0261151,25,6703,3
227.188,0.076126,0.09045,-0.133784,-0.930703,226.092,227.196,226.089,-0.13781,0.00909915,25,6704,3
272.664,0.0494659,0.108608,-0.0542558,-0.604931,271.347,272.673,271.34,-0.0557191,0.00909915,25,6705,3
225.858,0.107553,0.183883,-0.132028,-1.32457,223.63,225.873,223.622,-0.140226,0.0130575,25,6706,3
271.082,0.0677687,0.219202,-0.0379223,-0.838618,268.423,271.1,268.408,-0.0407428,0.0130575,25,6707,3
227.181,0.106908,0.126151,-0.133784,-0.927671,226.099,227.196,226.089,-0.13781,0.00909915,25,6708,3
272.655,0.0695007,0.151534,-0.0542558,-0.602957,271.356,272.673,271.34,-0.0557191,0.00909915,25,6709,3
225.843,0.152925,0.256425,-0.132028,-1.32011,223.644,225.873,223.622,-0.140226,0.0130575,25,6710,3
271.064,0.0971397,0.306107,-0.0379223,-0.835725,268.441,271.1,268.408,-0.0407428,0.0130575,25,6711,3
306.798,0.0261155,0.122011,-0.0114495,-0.319912,305.318,306.808,305.309,-0.0118172,0.00454957,25,6712,3
329.576,0.00837868,0.130203,0.0132138,-0.103837,327.995,329.587,327.984,0.013163,0.00454957,25,6713,3
305.037,0.0328674,0.243793,0.0191474,-0.412983,302.077,305.057,302.057,0.0185404,0.00652877,25,6714,3
327.703,0.00703817,0.257529,0.0535293,-0.0988067,324.571,327.724,324.55,0.0534256,0.00652877,25,6715,3
306.788,0.036798,0.170407,-0.0114495,-0.31886,305.328,306.808,305.309,-0.0118172,0.00454957,25,6716,3
329.565,0.01204,0.182263,0.0132138,-0.103477,328.005,329.587,327.984,0.013163,0.00454957,25,6717,3
305.017,0.0483331,0.341141,0.0191474,-0.411459,302.096,305.057,302.057,0.0185404,0.00652877,25,6718,3
327.682,0.0123733,0.361398,0.0535294,-0.0982813,324.592,327.724,324.55,0.0534256,0.00652877,25,6719,3
-244.768,0.123911,-0.429348,-1.65033,-1.52593,-239.555,-1.63431,-239.535,-244.803,0.151961,25,6720,3
-66.5528,0.267925,-0.119197,-1.09101,-3.28215,-65.1101,0.536719,-65.1841,-68.1066,0.151961,25,6721,3
-238.809,0.158611,-0.846073,-1.83141,-2.00349,-228.522,-1.8016,-228.482,-238.879,0.215295,25,6722,3
-64.8931,0.386178,-0.240893,-1.15179,-4.77703,-61.9735,1.01366,-62.1477,-66.8844,0.215295,25,6723,3
-244.733,0.176164,-0.600712,-1.65033,-1.52078,-239.589,-1.63431,-239.535,-244.803,0.151961,25,6724,3
-66.5435,0.377538,-0.165921,-1.09101,-3.27135,-65.1194,0.536719,-65.1841,-68.1066,0.151961,25,6725,3
-238.741,0.235298,-1.18653,-1.83141,-1.99594,-228.59,-1.8016,-228.482,-238.879,0.215295,25,6726,3
-64.8742,0.553194,-0.336096,-1.15179,-4.76058,-61.9924,1.01366,-62.1477,-66.8844,0.215295,25,6727,3
66.9247,0.272437,0.118746,-0.621816,-3.33779,65.4861,66.9347,65.6886,-0.834277,0.0759804,25,6728,3
155.955,0.222169,0.27628,-0.328569,-2.72326,152.607,155.978,152.638,-0.382616,0.0759804,25,6729,3
65.2674,0.394833,0.239503,-0.554138,-4.88241,62.3625,65.2875,62.8189,-1.03072,0.107648,25,6730,3
152.105,0.312757,0.554789,-0.179819,-3.88131,145.374,152.151,145.443,-0.295239,0.107648,25,6731,3
66.9154,0.383968,0.165552,-0.621816,-3.32681,65.4954,66.9347,65.6886,-0.834277,0.0759804,25,6732,3
155.934,0.31338,0.385416,-0.328569,-2.71427,152.629,155.978,152.638,-0.382616,0.0759804,25,6733,3
65.2485,0.565264,0.334563,-0.554138,-4.86562,62.3814,65.2875,62.8189,-1.03072,0.107648,25,6734,3
152.061,0.450459,0.7755,-0.179819,-3.86775,145.418,152.151,145.443,-0.295239,0.107648,25,6735,3
222.793,0.158564,0.393827,-0.140678,-1.9462,218.017,222.825,218.003,-0.159462,0.0379902,25,6736,3
267.411,0.101313,0.470228,-0.0259876,-1.24786,261.704,267.45,261.672,-0.0326347,0.0379902,25,6737,3
217.332,0.210791,0.783409,0.0611439,-2.638,207.819,217.397,207.79,0.0256068,0.0538238,25,6738,3
260.909,0.122314,0.925969,0.19515,-1.55992,249.654,260.986,249.587,0.184598,0.0538238,25,6739,3
222.761,0.224169,0.549866,-0.140678,-1.93974,218.048,222.825,218.003,-0.159462,0.0379902,25,6740,3
267.374,0.14408,0.657544,-0.0259876,-1.24365,261.742,267.45,261.672,-0.0326347,0.0379902,25,6741,3
217.27,0.307907,1.09644,0.0611439,-2.62843,207.881,217.397,207.79,0.0256068,0.0538238,25,6742,3
260.835,0.184361,1.29821,0.19515,-1.55381,249.728,260.986,249.587,0.184598,0.0538238,25,6743,3
300.915,0.0507834,0.525642,0.0572082,-0.632185,294.529,300.959,294.487,0.0557108,0.0189951,25,6744,3
323.282,0.0126266,0.560311,0.1189,-0.167602,316.467,323.328,316.421,0.118675,0.0189951,25,6745,3
293.645,0.0473606,1.02722,0.280866,-0.647022,281.146,293.73,281.063,0.278459,0.0269119,25,6746,3
315.507,-0.00648869,1.08975,0.332781,0.00899009,302.235,315.597,302.148,0.330161,0.0269119,25,6747,3
300.873,0.0735255,0.736282,0.0572082,-0.629945,294.571,300.959,294.487,0.0557108,0.0189951,25,6748,3
323.237,0.0203135,0.786308,0.1189,-0.166845,316.512,323.328,316.421,0.118675,0.0189951,25,6749,3
293.562,0.0797771,1.44255,0.280866,-0.643829,281.228,293.73,281.063,0.278459,0.0269119,25,6750,3
315.419,0.00461013,1.53266,0.332781,0.0100832,302.323,315.597,302.148,0.330161,0.0269119,25,6751,3
-224.779,0.257581,-1.77847,-1.84793,-3.14238,-203.186,-1.7565,-203.13,-224.927,0.620593,25,6752,3
-61.0989,0.546672,-0.490084,-1.14883,-6.67079,-55.1546,1.85108,-55.603,-63.6504,0.620593,25,6753,3
-200.136,0.373981,-3.47368,-1.57028,-4.49991,-158.063,-1.32493,-158.019,-200.425,0.873929,25,6754,3
-54.4187,0.759672,-0.946566,-1.09957,-9.20629,-42.9536,3.31703,-44.0323,-57.7567,0.873929,25,6755,3
-224.638,0.360416,-2.48847,-1.84793,-3.13225,-203.328,-1.7565,-203.13,-224.927,0.620593,25,6756,3
-61.0602,0.765239,-0.68461,-1.14883,-6.64926,-55.1933,1.85108,-55.603,-63.6504,0.620593,25,6757,3
-199.864,0.511095,-4.84114,-1.57028,-4.48641,-158.335,-1.32493,-158.019,-200.425,0.873929,25,6758,3
-54.3446,1.05098,-1.31924,-1.09957,-9.1776,-43.0278,3.31703,-44.0323,-57.7567,0.873929,25,6759,3
61.45,0.5567,0.490858,-0.561027,-6.79281,55.4952,61.5015,56.577,-1.69426,0.310296,25,6760,3
143.201,0.453398,1.14179,-0.190504,-5.53264,129.347,143.296,129.557,-0.495453,0.310296,25,6761,3
54.7376,0.773025,0.950053,-0.617072,-9.36923,43.2302,54.8893,45.5802,-3.11891,0.436965,25,6762,3
127.544,0.635137,2.21428,-0.329553,-7.68698,100.724,127.728,101.286,-1.07573,0.436965,25,6763,3
61.4112,0.779209,0.685906,-0.561027,-6.7709,55.534,61.5015,56.577,-1.69426,0.310296,25,6764,3
143.111,0.634678,1.59593,-0.190504,-5.51479,129.438,143.296,129.557,-0.495453,0.310296,25,6765,3
54.6632,1.06967,1.32411,-0.617072,-9.34001,43.3046,54.8893,45.5802,-3.11891,0.436965,25,6766,3
127.37,0.876722,3.08604,-0.329553,-7.66319,100.897,127.728,101.286,-1.07573,0.436965,25,6767,3
204.592,0.324113,1.62543,0.0540188,-3.95519,184.865,204.727,184.838,-0.054076,0.155148,25,6768,3
245.589,0.209948,1.9428,0.199484,-2.56174,222.002,245.751,221.881,0.159832,0.155148,25,6769,3
182.201,0.462656,3.1624,-0.167575,-5.58237,143.897,182.463,143.916,-0.448808,0.218482,25,6770,3
218.682,0.310407,3.79378,-0.100228,-3.72468,172.731,218.997,172.53,-0.214318,0.218482,25,6771,3
204.464,0.453734,2.273,0.0540188,-3.94242,184.994,204.727,184.838,-0.054076,0.155148,25,6772,3
245.435,0.293857,2.71829,0.199484,-2.55348,222.157,245.751,221.881,0.159832,0.155148,25,6773,3
181.953,0.6353,4.4073,-0.167575,-5.56537,144.145,182.463,143.916,-0.448808,0.218482,25,6774,3
218.384,0.422206,5.28718,-0.100228,-3.71367,173.028,218.997,172.53,-0.214318,0.218482,25,6775,3
276.377,0.110832,2.17818,0.298733,-1.35178,249.924,276.558,249.754,0.288463,0.0775741,25,6776,3
296.93,0.0372998,2.33291,0.363304,-0.45416,268.591,297.123,268.4,0.361281,0.0775741,25,6777,3
246.07,0.178181,4.26656,-0.0712697,-2.11211,194.393,246.424,194.075,-0.107996,0.109241,25,6778,3
264.348,0.0799956,4.58078,-0.0626074,-0.915873,208.865,264.729,208.494,-0.0720732,0.109241,25,6779,3
276.204,0.155017,3.04907,0.298733,-1.34743,250.098,276.558,249.754,0.288463,0.0775741,25,6780,3
296.744,0.0520191,3.26694,0.363304,-0.45271,268.777,297.123,268.4,0.361281,0.0775741,25,6781,3
245.736,0.237294,5.9461,-0.0712697,-2.10628,194.727,246.424,194.075,-0.107996,0.109241,25,6782,3
263.989,0.100219,6.38416,-0.0626074,-0.913881,209.223,264.729,208.494,-0.0720732,0.109241,25,6783,3
-177.328,0.419587,-5.08685,-1.41578,-5.17584,-115.741,-1.02598,-115.708,-177.751,0.531966,25,6784,3
-48.229,0.934346,-1.3786,-1.05601,-11.4491,-31.5338,4.93065,-33.4871,-52.2624,0.531966,25,6785,3
-158.929,0.489881,-6.3672,-1.57626,-5.96146,-81.8006,-0.853127,-81.9947,-159.458,0.5953,25,6786,3
-43.2089,1.03589,-1.73216,-1.1217,-12.6173,-22.2236,6.4507,-25.3872,-47.6177,0.5953,25,6787,3
-176.931,0.598231,-7.08459,-1.41578,-5.15824,-116.138,-1.02598,-115.708,-177.751,0.531966,25,6788,3
-48.1211,1.31722,-1.92083,-1.05601,-11.4114,-31.6416,4.93065,-33.4871,-52.2624,0.531966,25,6789,3
-158.43,0.682555,-8.87529,-1.57626,-5.94248,-82.2995,-0.853127,-81.9947,-159.458,0.5953,25,6790,3
-43.0731,1.44552,-2.41506,-1.1217,-12.5769,-22.3595,6.4507,-25.3872,-47.6177,0.5953,25,6791,3
48.5195,0.953398,1.3848,-0.667099,-11.6815,31.75,48.6346,35.8873,-4.91951,0.265983,25,6792,3
113.043,0.767685,3.23068,-0.440408,-9.41754,73.9218,113.311,74.9484,-1.73549,0.265983,25,6793,3
43.4837,1.05509,1.73899,-0.600064,-12.8516,22.4164,43.6282,28.485,-6.81318,0.29765,25,6794,3
101.308,0.860121,4.05405,-0.295367,-10.4736,52.1957,101.645,54.0819,-2.51844,0.29765,25,6795,3
48.4112,1.34387,1.92931,-0.667099,-11.6431,31.8583,48.6346,35.8873,-4.91951,0.265983,25,6796,3
112.79,1.08434,4.50069,-0.440408,-9.38635,74.1744,113.311,74.9484,-1.73549,0.265983,25,6797,3
43.3473,1.47241,2.42443,-0.600064,-12.8105,22.5528,43.6282,28.485,-6.81318,0.29765,25,6798,3
100.99,1.1997,5.6518,-0.295367,-10.4401,52.5135,101.645,54.0819,-2.51844,0.29765,25,6799,3
161.47,0.5369,4.62127,-0.31911,-6.60481,105.514,161.854,105.572,-0.761153,0.132991,25,6800,3
193.776,0.335939,5.55455,-0.275319,-4.15651,126.527,194.238,126.218,-0.428484,0.132991,25,6801,3
144.722,0.61629,5.79157,-0.13243,-7.50026,74.563,145.203,74.8942,-0.944825,0.148825,25,6802,3
173.693,0.401262,6.95178,-0.0854123,-4.87996,89.4833,174.271,89.2078,-0.387566,0.148825,25,6803,3
161.109,0.761952,6.43709,-0.31911,-6.58265,105.876,161.854,105.572,-0.761153,0.132991,25,6804,3
193.343,0.481411,7.73595,-0.275319,-4.14218,126.961,194.238,126.218,-0.428484,0.132991,25,6805,3
144.268,0.858779,8.07364,-0.13243,-7.47638,75.017,145.203,74.8942,-0.944825,0.148825,25,6806,3
173.149,0.55848,9.69026,-0.0854123,-4.86447,90.0281,174.271,89.2078,-0.387566,0.148825,25,6807,3
218.023,0.164451,6.25712,-0.262915,-2.06863,142.272,218.543,141.787,-0.298264,0.0664957,25,6808,3
234.197,0.0398276,6.72693,-0.266031,-0.552568,152.762,234.756,152.209,-0.272065,0.0664957,25,6809,3
195.438,0.214892,7.82311,-0.0867472,-2.61063,100.677,196.088,100.107,-0.166436,0.0744125,25,6810,3
209.942,0.0766887,8.40488,-0.112946,-0.929856,108.138,210.64,107.453,-0.12588,0.0744125,25,6811,3
217.534,0.242279,8.71348,-0.262915,-2.06097,142.76,218.543,141.787,-0.298264,0.0664957,25,6812,3
233.672,0.0687384,9.36712,-0.266031,-0.549721,153.287,234.756,152.209,-0.272065,0.0664957,25,6813,3
194.825,0.298546,10.9041,-0.0867472,-2.60239,101.29,196.088,100.107,-0.166436,0.0744125,25,6814,3
209.284,0.106191,11.7142,-0.112946,-0.92695,108.796,210.64,107.453,-0.12588,0.0744125,25,6815,3
-143.947,0.517277,-7.40919,-1.54698,-6.34839,-54.199,-0.359558,-54.7708,-144.562,0.3214,25,6816,3
-39.1272,1.1221,-2.0137,-1.0902,-13.7217,-14.7315,8.43275,-19.497,-43.8846,0.3214,25,6817,3
-133.148,0.559699,-8.16357,-1.57184,-6.82422,-34.2503,0.482249,-35.6261,-133.826,0.337234,25,6818,3
-36.1865,1.18041,-2.21032,-0.96696,-14.3916,-9.4089,10.3562,-15.778,-41.1406,0.337234,25,6819,3
-143.366,0.731173,-10.3273,-1.54698,-6.32733,-54.7795,-0.359558,-54.7708,-144.562,0.3214,25,6820,3
-38.9694,1.57644,-2.80752,-1.0902,-13.677,-14.8894,8.43275,-19.497,-43.8846,0.3214,25,6821,3
-132.508,0.782395,-11.3811,-1.57184,-6.80229,-34.8903,0.482249,-35.6261,-133.826,0.337234,25,6822,3
-36.0132,1.64994,-3.08161,-0.96696,-14.3454,-9.58221,10.3562,-15.778,-41.1406,0.337234,25,6823,3
39.395,1.14223,2.02228,-0.602168,-13.9677,14.8963,39.5631,23.2742,-9.14808,0.1607,25,6824,3
91.7714,0.926671,4.71411,-0.324174,-11.3372,34.6633,92.1631,37.8487,-3.9012,0.1607,25,6825,3
36.4384,1.19033,2.24159,-0.440971,-14.5136,9.28176,36.6307,19.778,-11.1295,0.168617,25,6826,3
84.9102,0.961883,5.20105,-0.184687,-11.7265,21.9012,85.3423,26.8294,-5.54508,0.168617,25,6827,3
39.2365,1.60468,2.81929,-0.602168,-13.9222,15.0548,39.5631,23.2742,-9.14808,0.1607,25,6828,3
91.4019,1.30292,6.57189,-0.324174,-11.3002,35.0329,92.1631,37.8487,-3.9012,0.1607,25,6829,3
36.2627,1.66401,3.12524,-0.440971,-14.467,9.45753,36.6307,19.778,-11.1295,0.168617,25,6830,3
84.5024,1.34433,7.2511,-0.184687,-11.6889,22.309,85.3423,26.8294,-5.54508,0.168617,25,6831,3
131.098,0.656693,6.73536,-0.177743,-8.04451,49.5058,131.657,50.2832,-1.51472,0.0803501,25,6832,3
157.337,0.418373,8.08813,-0.12683,-5.14068,59.3634,158.009,59.1712,-0.606675,0.0803501,25,6833,3
121.326,0.683696,7.418,-0.0594784,-8.33403,31.4592,121.942,33.0485,-2.26519,0.0843085,25,6834,3
145.642,0.441966,8.89638,-0.0218075,-5.38758,37.8657,146.381,37.9567,-0.852026,0.0843085,25,6835,3
130.57,0.925331,9.38924,-0.177743,-8.01805,50.0337,131.657,50.2832,-1.51472,0.0803501,25,6836,3
156.703,0.592562,11.2739,-0.12683,-5.12352,59.9971,158.009,59.1712,-0.606675,0.0803501,25,6837,3
120.744,0.955331,10.3418,-0.0594784,-8.30728,32.0408,121.942,33.0485,-2.26519,0.0843085,25,6838,3
144.944,0.61759,12.4029,-0.0218075,-5.37028,38.5632,146.381,37.9567,-0.852026,0.0843085,25,6839,3
177.025,0.212876,9.10682,-0.114366,-2.63972,66.7187,177.781,66.0765,-0.22894,0.040175,25,6840,3
190.148,0.0629416,9.78994,-0.123901,-0.815856,71.5756,190.962,70.7779,-0.139739,0.040175,25,6841,3
163.896,0.233943,10.0069,-0.0182073,-2.85262,42.6677,164.727,42.0476,-0.229328,0.0421542,25,6842,3
176.066,0.0802622,10.7496,-0.0443346,-0.984998,45.8434,176.959,44.9811,-0.075129,0.0421542,25,6843,3
176.311,0.306197,12.6925,-0.114366,-2.63052,67.4319,177.781,66.0765,-0.22894,0.040175,25,6844,3
189.382,0.0974333,13.6432,-0.123901,-0.812458,72.3421,190.962,70.7779,-0.139739,0.040175,25,6845,3
163.112,0.327072,13.9508,-0.0182073,-2.84345,43.4522,164.727,42.0476,-0.229328,0.0421542,25,6846,3
175.223,0.113444,14.9857,-0.0443346,-0.98173,46.686,176.959,44.9811,-0.075129,0.0421542,25,6847,3
-124.683,0.58913,-8.76695,-1.59538,-7.19568,-18.4774,1.87701,-21.2214,-125.412,0.174555,25,6848,3
-34.0485,1.23318,-2.35004,-1.12098,-15.0476,-5.57831,12.1169,-13.63,-39.2347,0.174555,25,6849,3
-118.962,0.569185,-9.1799,-1.96392,-6.94791,-7.75224,3.33661,-12.29,-119.725,0.178513,25,6850,3
-32.8966,1.2249,-2.49724,-2.8317,-14.9433,-2.64529,12.4143,-12.4406,-38.3473,0.178513,25,6851,3
-123.996,0.825997,-12.222,-1.59538,-7.17235,-19.1646,1.87701,-21.2214,-125.412,0.174555,25,6852,3
-33.8643,1.72616,-3.27639,-1.12098,-14.9991,-5.76257,12.1169,-13.63,-39.2347,0.174555,25,6853,3
-118.243,0.797221,-12.798,-1.96392,-6.92545,-8.47193,3.33661,-12.29,-119.725,0.178513,25,6854,3
-32.7009,1.71393,-3.48119,-2.8317,-14.8952,-2.84101,12.4143,-12.4406,-38.3473,0.178513,25,6855,3
33.9772,1.23073,2.42963,-0.542244,-15.0208,4.54123,34.1849,17.1995,-13.4082,0.0872773,25,6856,3
79.5001,0.979254,5.58818,-0.178736,-11.9529,11.7976,79.9641,18.9896,-7.83476,0.0872773,25,6857,3
31.7946,1.29721,2.49672,-2.82494,-15.8391,1.53588,32.0154,15.2756,-16.7854,0.0892564,25,6858,3
75.228,1.07348,5.84841,-1.82403,-13.121,4.3516,75.7153,14.5171,-12.4769,0.0892564,25,6859,3
33.7866,1.72333,3.38764,-0.542244,-14.9723,4.73179,34.1849,17.1995,-13.4082,0.0872773,25,6860,3
79.0618,1.37146,7.7915,-0.178736,-11.9143,12.2359,79.9641,18.9896,-7.83476,0.0872773,25,6861,3
31.5984,1.81777,3.48309,-2.82494,-15.7879,1.73208,32.0154,15.2756,-16.7854,0.0892564,25,6862,3
74.7685,1.50694,8.15838,-1.82403,-13.0783,4.81108,75.7153,14.5171,-12.4769,0.0892564,25,6863,3
113.762,0.682524,7.93773,-0.0263066,-8.33134,17.5953,114.421,20.4409,-3.531,0.0436386,25,6864,3
136.66,0.432535,9.49765,-0.00575912,-5.28499,21.5986,137.45,22.1539,-1.35048,0.0436386,25,6865,3
108.14,0.74499,8.32971,-0.751755,-9.11364,7.19382,108.833,12.8367,-7.08792,0.0446282,25,6866,3
130.336,0.454399,9.92726,-0.216219,-5.55586,10.0455,131.16,12.0327,-3.02718,0.0446282,25,6867,3
113.139,0.955954,11.0672,-0.0263066,-8.30441,18.2178,114.421,20.4409,-3.531,0.0436386,25,6868,3
135.916,0.606826,13.2414,-0.00575912,-5.26783,22.3433,137.45,22.1539,-1.35048,0.0436386,25,6869,3
107.485,1.04731,11.6195,-0.751755,-9.08387,7.84821,108.833,12.8367,-7.08792,0.0446282,25,6870,3
129.557,0.638226,13.8451,-0.216219,-5.53775,10.8248,131.16,12.0327,-3.02718,0.0446282,25,6871,3
153.858,0.221829,10.668,-0.00604522,-2.7261,24.6193,154.746,24.0637,-0.338228,0.0218193,25,6872,3
165.307,0.0733732,11.4539,-0.0522838,-0.910467,26.555,166.259,25.6558,-0.105037,0.0218193,25,6873,3
147.118,0.220035,11.0915,0.032471,-2.68341,12.7488,148.037,12.4942,-0.631831,0.0223141,25,6874,3
158.253,0.0717229,11.8558,-0.138171,-0.906137,14.6438,159.24,13.8722,-0.353987,0.0223141,25,6875,3
153.021,0.314268,14.8727,-0.00604522,-2.71699,25.4556,154.746,24.0637,-0.338228,0.0218193,25,6876,3
164.41,0.10566,15.9671,-0.0522838,-0.907287,27.4527,166.259,25.6558,-0.105037,0.0218193,25,6877,3
146.249,0.307701,15.4633,0.032471,-2.67478,13.6184,148.037,12.4942,-0.631831,0.0223141,25,6878,3
157.324,0.106434,16.525,-0.138171,-0.902718,15.5726,159.24,13.8722,-0.353987,0.0223141,25,6879,3
-114.872,0.481382,-9.44976,-2.4416,-5.86872,-0.491973,5.09622,-7.24401,-115.657,0.0922591,25,6880,3
-32.2358,1.07589,-2.68608,-5.81057,-13.1241,0.279943,10.9194,-11.0503,-37.6354,0.0922591,25,6881,3
-112.327,0.37415,-9.54162,-2.38451,-4.5582,3.16177,6.59699,-5.02629,-113.121,0.0932817,25,6882,3
-31.7299,0.808348,-2.79714,-7.54231,-9.84295,2.12901,8.50696,-9.22007,-36.4301,0.0932817,25,6883,3
-114.135,0.672798,-13.1552,-2.4416,-5.84987,-1.22902,5.09622,-7.24401,-115.657,0.0922591,25,6884,3
-32.0261,1.50516,-3.74,-5.81057,-13.0818,0.0703056,10.9194,-11.0503,-37.6354,0.0922591,25,6885,3
-111.583,0.522299,-13.2826,-2.38451,-4.5436,2.41765,6.59699,-5.02629,-113.121,0.0932817,25,6886,3
-31.5117,1.12745,-3.89442,-7.54231,-9.81152,1.91075,8.50696,-9.22007,-36.4301,0.0932817,25,6887,3
29.6325,1.28846,2.34148,-8.80299,-15.7258,1.30691,29.8303,12.7352,-20.429,0.0461296,25,6888,3
70.9187,1.29609,5.84994,-8.82122,-15.85,0.140003,71.4186,11.9179,-21.0991,0.0461296,25,6889,3
28.268,0.960591,2.08073,-14.6672,-11.6653,3.09542,28.4479,8.89482,-20.6464,0.0466408,25,6890,3
67.3414,1.12812,5.36958,-21.789,-13.5773,2.41071,67.8596,8.50862,-28.405,0.0466408,25,6891,3
29.4505,1.80425,3.25662,-8.80299,-15.675,1.48894,29.8303,12.7352,-20.429,0.0461296,25,6892,3
70.4635,1.82099,8.13827,-8.82122,-15.7983,0.595181,71.4186,11.9179,-21.0991,0.0461296,25,6893,3
28.1062,1.33365,2.89422,-14.6672,-11.6285,3.25724,28.4479,8.89482,-20.6464,0.0466408,25,6894,3
66.925,1.54236,7.4631,-21.789,-13.5365,2.82713,67.8596,8.50862,-28.405,0.0466408,25,6895,3
102.342,1.10554,8.61049,-6.07199,-13.5821,-1.84816,103.091,9.46139,-18.1307,0.0230648,25,6896,3
124.068,0.722316,10.4171,-2.59873,-8.96969,-2.00395,124.984,6.58933,-12.1073,0.0230648,25,6897,3
95.7089,1.42536,8.02494,-27.7074,-16.972,-1.28047,96.6849,7.30294,-37.2668,0.0233204,25,6898,3
114.158,1.77842,10.0915,-29.4679,-20.9048,-7.81156,116.044,5.96275,-45.1288,0.0233204,25,6899,3
101.671,1.56544,11.9808,-6.07199,-13.5368,-1.17777,103.091,9.46139,-18.1307,0.0230648,25,6900,3
123.256,1.04146,14.4987,-2.59873,-8.93826,-1.19206,124.984,6.58933,-12.1073,0.0230648,25,6901,3
95.0885,1.9131,11.144,-27.7074,-16.924,-0.660046,96.6849,7.30294,-37.2668,0.0233204,25,6902,3
113.377,2.33408,14.0144,-29.4679,-20.8501,-7.03124,116.044,5.96275,-45.1288,0.0233204,25,6903,3
141.157,0.304266,11.5439,-0.676695,-3.91992,1.38359,142.169,5.59575,-5.90138,0.0115324,25,6904,3
152.167,0.156645,12.2346,-1.61754,-2.0609,4.066,153.284,8.77274,-7.44193,0.0115324,25,6905,3
127.785,1.97176,12.0493,-26.5077,-22.8146,-17.9128,131.149,6.07437,-53.8596,0.0116602,25,6906,3
137.403,1.56305,13.5983,-20.0946,-17.3628,-27.3445,142.955,6.59839,-59.5896,0.0116602,25,6907,3
140.255,0.46632,16.0792,-0.676695,-3.90396,2.28571,142.169,5.59575,-5.90138,0.0115324,25,6908,3
151.212,0.248426,17.0346,-1.61754,-2.05186,5.02077,153.284,8.77274,-7.44193,0.0115324,25,6909,3
126.85,2.51703,16.7459,-26.5077,-22.7609,-16.9786,131.149,6.07437,-53.8596,0.0116602,25,6910,3
136.336,1.8543,18.9598,-20.0946,-17.3341,-26.278,142.955,6.59839,-59.5896,0.0116602,25,6911,3
-1.23481,-0.95779,15.8674,-2.2719,0.112374,134.866,137.076,2.11543,-7.83161,0.048891,25,0,4
-0.510155,-0.324977,14.7383,-1.48176,0.0383376,125.912,127.8,1.26284,-5.14296,0.048891,25,1,4
-7.91861,-3.35084,17.011,-11.887,0.378988,137.998,143.602,6.60491,-32.014,0.0469275,25,2,4
-8.03055,-4.50349,15.897,-11.3383,0.517465,128.319,132.107,4.07426,-27.2315,0.0469275,25,3,4
-2.12697,-0.96131,11.3822,-2.2719,0.0766413,135.758,137.076,2.11543,-7.83161,0.048891,25,4,4
-1.33863,-0.326212,10.5733,-1.48176,0.0257989,126.74,127.8,1.26284,-5.14296,0.048891,25,5,4
-8.8748,-3.3604,12.2039,-11.887,0.282012,138.955,143.602,6.60491,-32.014,0.0469275,25,6,4
-8.92458,-4.51791,11.4024,-11.3383,0.371066,129.213,132.107,4.07426,-27.2315,0.0469275,25,7,4
-0.118442,0.287784,13.096,-0.653604,-0.0330013,112.217,113.805,0.835387,-3.19607,0.0977821,25,8,4
-0.128948,0.616921,10.9385,-0.0425397,-0.0712625,93.7003,94.9847,0.572814,-2.02875,0.0977821,25,9,4
-6.63875,-4.43294,14.0848,-10.5168,0.512278,114.16,116.623,1.68574,-21.3048,0.0938551,25,10,4
-4.58103,-3.41762,11.6388,-9.71243,0.396152,95.2356,96.798,-0.0492395,-15.8067,0.0938551,25,11,4
-0.854544,0.288693,9.39532,-0.653604,-0.0237767,112.953,113.805,0.835387,-3.19607,0.0977821,25,12,4
-0.743774,0.61897,7.84758,-0.0425397,-0.0504621,94.3151,94.9847,0.572814,-2.02875,0.0977821,25,13,4
-7.43115,-4.4477,10.1011,-10.5168,0.362389,114.952,116.623,1.68574,-21.3048,0.0938551,25,14,4
-5.23595,-3.42924,8.34628,-9.71243,0.278206,95.8905,96.798,-0.0492395,-15.8067,0.0938551,25,15,4
-0.476537,0.524177,7.71437,0.277264,-0.0605486,65.6955,66.592,0.512917,-1.60872,0.195564,25,16,4
-0.59648,0.207967,3.37465,0.329253,-0.0240805,28.35,28.741,0.381386,-1.03956,0.195564,25,17,4
-2.27755,-1.45004,8.03264,-8.54212,0.168468,66.6143,67.5861,-0.797394,-10.9941,0.18771,25,18,4
-0.37007,0.725026,3.3313,-6.74624,-0.0828548,28.2023,28.5902,0.296433,-7.8007,0.18771,25,19,4
-0.910176,0.525918,5.53432,0.277264,-0.0428768,66.1291,66.592,0.512917,-1.60872,0.195564,25,20,4
-0.786193,0.208669,2.4209,0.329253,-0.0169544,28.5397,28.741,0.381386,-1.03956,0.195564,25,21,4
-2.72947,-1.45505,5.7607,-8.54212,0.117658,67.0662,67.5861,-0.797394,-10.9941,0.18771,25,22,4
-0.557435,0.727259,2.38936,-6.74624,-0.0601828,28.3896,28.5902,0.296433,-7.8007,0.18771,25,23,4
-0.145682,-0.180819,-3.19637,0.218724,0.0206447,-27.5627,0.881532,0.072422,-28.4437,0.391128,25,24,4
0.945287,-0.237412,-12.0027,0.0316292,0.027469,-102.009,2.40314,-0.0359925,-103.399,0.391128,25,25,4
1.24184,2.09458,-3.60571,-3.81802,-0.24098,-29.6863,2.77468,-3.11225,-31.9249,0.37542,25,26,4
4.76732,1.1376,-13.0015,-0.734353,-0.130668,-106.754,6.71596,-1.17707,-108.26,0.37542,25,27,4
0.0340172,-0.181372,-2.29296,0.218724,0.0150281,-27.7424,0.881532,0.072422,-28.4437,0.391128,25,28,4
1.62007,-0.23821,-8.61037,0.0316292,0.0193756,-102.684,2.40314,-0.0359925,-103.399,0.391128,25,29,4
1.44455,2.10135,-2.5866,-3.81802,-0.172283,-29.889,2.77468,-3.11225,-31.9249,0.37542,25,30,4
5.49825,1.14124,-9.32689,-0.734353,-0.0937781,-107.485,6.71596,-1.17707,-108.26,0.37542,25,31,4
-2.72374,-0.963089,6.8493,-2.2719,0.0494904,136.355,137.076,2.11543,-7.83161,0.048891,25,32,4
-1.89312,-0.326789,6.36158,-1.48176,0.017001,127.295,127.8,1.26284,-5.14296,0.048891,25,33,4
-9.51482,-3.36846,7.34248,-11.887,0.15902,139.595,143.602,6.60491,-32.014,0.0469275,25,34,4
-9.52228,-4.52769,6.86241,-11.3383,0.221815,129.81,132.107,4.07426,-27.2315,0.0469275,25,35,4
-3.02283,-0.964264,2.28601,-2.2719,0.0136046,136.654,137.076,2.11543,-7.83161,0.048891,25,36,4
-2.17086,-0.327201,2.12403,-1.48176,0.00440841,127.572,127.8,1.26284,-5.14296,0.048891,25,37,4
-9.83538,-3.37165,2.45169,-11.887,0.0616276,139.915,143.602,6.60491,-32.014,0.0469275,25,38,4
-9.822,-4.53251,2.28957,-11.3383,0.0747855,130.11,132.107,4.07426,-27.2315,0.0469275,25,39,4
-1.34729,0.289326,5.65257,-0.653604,-0.0141087,113.446,113.805,0.835387,-3.19607,0.0977821,25,40,4
-1.15535,0.620261,4.72135,-0.0425397,-0.0307614,94.7267,94.9847,0.572814,-2.02875,0.0977821,25,41,4
-7.96046,-4.45695,6.08062,-10.5168,0.221253,115.481,116.623,1.68574,-21.3048,0.0938551,25,42,4
-5.67322,-3.43622,5.02484,-9.71243,0.17178,96.3278,96.798,-0.0492395,-15.8067,0.0938551,25,43,4
-1.59406,0.28963,1.88752,-0.653604,-0.0048444,113.692,113.805,0.835387,-3.19607,0.0977821,25,44,4
-1.36147,0.620945,1.5766,-0.0425397,-0.00987149,94.9328,94.9847,0.572814,-2.02875,0.0977821,25,45,4
-8.22611,-4.46188,2.0276,-10.5168,0.0707194,115.747,116.623,1.68574,-21.3048,0.0938551,25,46,4
-5.89278,-3.44009,1.67505,-9.71243,0.0533268,96.5473,96.798,-0.0492395,-15.8067,0.0938551,25,47,4
-1.20041,0.527015,3.32978,0.277264,-0.0261361,66.4193,66.592,0.512917,-1.60872,0.195564,25,48,4
-0.91314,0.209096,1.45664,0.329253,-0.0104273,28.6667,28.741,0.381386,-1.03956,0.195564,25,49,4
-3.03133,-1.45796,3.46782,-8.54212,0.0732702,67.3681,67.5861,-0.797394,-10.9941,0.18771,25,50,4
-0.682672,0.728892,1.43808,-6.74624,-0.0352584,28.5149,28.5902,0.296433,-7.8007,0.18771,25,51,4
-1.34578,0.527596,1.11178,0.277264,-0.00838831,66.5647,66.592,0.512917,-1.60872,0.195564,25,52,4
-0.97674,0.209331,0.48629,0.329253,-0.00327057,28.7303,28.741,0.381386,-1.03956,0.195564,25,53,4
-3.18284,-1.45963,1.15633,-8.54212,0.0222416,67.5196,67.5861,-0.797394,-10.9941,0.18771,25,54,4
-0.745485,0.729638,0.47974,-6.74624,-0.0124889,28.5777,28.5902,0.296433,-7.8007,0.18771,25,55,4
0.15425,-0.181782,-1.37971,0.218724,0.00877434,-27.8627,0.881532,0.072422,-28.4437,0.391128,25,56,4
2.07156,-0.238701,-5.18092,0.0316292,0.0118827,-103.135,2.40314,-0.0359925,-103.399,0.391128,25,57,4
1.58018,2.10586,-1.55639,-3.81802,-0.103472,-30.0246,2.77468,-3.11225,-31.9249,0.37542,25,58,4
5.98732,1.14371,-5.61206,-0.734353,-0.0559854,-107.974,6.71596,-1.17707,-108.26,0.37542,25,59,4
0.214493,-0.181967,-0.460569,0.218724,0.00313358,-27.9229,0.881532,0.072422,-28.4437,0.391128,25,60,4
2.29778,-0.238967,-1.72952,0.0316292,0.00375451,-103.361,2.40314,-0.0359925,-103.399,0.391128,25,61,4
1.64814,2.10812,-0.519549,-3.81802,-0.0344797,-30.0926,2.77468,-3.11225,-31.9249,0.37542,25,62,4
6.23236,1.14493,-1.87345,-0.734353,-0.0189369,-108.219,6.71596,-1.17707,-108.26,0.37542,25,63,4
5.19075,-0.934929,32.9395,-2.2719,0.236429,128.441,137.076,2.11543,-7.83161,0.048891,25,64,4
5.45827,-0.317193,30.5963,-1.48176,0.0804277,119.943,127.8,1.26284,-5.14296,0.048891,25,65,4
-1.02983,-3.27271,35.3144,-11.887,0.813118,131.11,143.602,6.60491,-32.014,0.0469275,25,66,4
-1.59312,-4.39742,33.0002,-11.3383,1.10086,121.881,132.107,4.07426,-27.2315,0.0469275,25,67,4
3.16813,-0.943082,28.838,-2.2719,0.201462,130.463,137.076,2.11543,-7.83161,0.048891,25,68,4
3.58002,-0.320054,26.7876,-1.48176,0.0681575,121.821,127.8,1.26284,-5.14296,0.048891,25,69,4
-3.19762,-3.29484,30.9186,-11.887,0.718219,133.277,143.602,6.60491,-32.014,0.0469275,25,70,4
-3.61997,-4.43083,28.8901,-11.3383,0.957597,123.908,132.107,4.07426,-27.2315,0.0469275,25,71,4
5.1849,0.281015,27.187,-0.653604,-0.0702824,106.913,113.805,0.835387,-3.19607,0.0977821,25,72,4
4.30073,0.602341,22.7082,-0.0425397,-0.151177,89.2706,94.9847,0.572814,-2.02875,0.0977821,25,73,4
-0.935283,-4.32815,29.2373,-10.5168,1.08651,108.456,116.623,1.68574,-21.3048,0.0938551,25,74,4
0.13188,-3.33668,24.1594,-9.71243,0.838852,90.5226,96.798,-0.0492395,-15.8067,0.0938551,25,75,4
3.51609,0.283119,23.8029,-0.653604,-0.0612553,108.582,113.805,0.835387,-3.19607,0.0977821,25,76,4
2.90685,0.607088,19.8817,-0.0425397,-0.130822,90.6645,94.9847,0.572814,-2.02875,0.0977821,25,77,4
-2.73173,-4.36235,25.5945,-10.5168,0.93983,110.253,116.623,1.68574,-21.3048,0.0938551,25,78,4
-1.35287,-3.36359,21.1486,-9.71243,0.723431,92.0074,96.798,-0.0492395,-15.8067,0.0938551,25,79,4
2.64747,0.51179,16.0148,0.277264,-0.128449,62.5715,66.592,0.512917,-1.60872,0.195564,25,80,4
0.770108,0.203044,7.00561,0.329253,-0.0510196,26.9834,28.741,0.381386,-1.03956,0.195564,25,81,4
0.975161,-1.41565,16.6742,-8.54212,0.356296,63.3616,67.5861,-0.797394,-10.9941,0.18771,25,82,4
0.978924,0.708008,6.91532,-6.74624,-0.176781,26.8533,28.5902,0.296433,-7.8007,0.18771,25,83,4
1.66437,0.515822,14.0213,0.277264,-0.111156,63.5546,66.592,0.512917,-1.60872,0.195564,25,84,4
0.340011,0.20467,6.13347,0.329253,-0.0440461,27.4135,28.741,0.381386,-1.03956,0.195564,25,85,4
-0.0493768,-1.42724,14.5966,-8.54212,0.306573,64.3861,67.5861,-0.797394,-10.9941,0.18771,25,86,4
0.55415,0.713182,6.05397,-6.74624,-0.154594,27.278,28.5902,0.296433,-7.8007,0.18771,25,87,4
-1.44007,-0.176578,-6.63549,0.218724,0.0440697,-26.2684,0.881532,0.072422,-28.4437,0.391128,25,88,4
-3.91529,-0.231796,-24.917,0.0316292,0.0582226,-97.1484,2.40314,-0.0359925,-103.399,0.391128,25,89,4
-0.218311,2.04521,-7.48524,-3.81802,-0.512316,-28.2261,2.77468,-3.11225,-31.9249,0.37542,25,90,4
-0.497728,1.11081,-26.9905,-0.734353,-0.278037,-101.489,6.71596,-1.17707,-108.26,0.37542,25,91,4
-1.03268,-0.177859,-5.80937,0.218724,0.0385734,-26.6758,0.881532,0.072422,-28.4437,0.391128,25,92,4
-2.38549,-0.233643,-21.8149,0.0316292,0.0503025,-98.6782,2.40314,-0.0359925,-103.399,0.391128,25,93,4
0.241257,2.06088,-6.55332,-3.81802,-0.445091,-28.6857,2.77468,-3.11225,-31.9249,0.37542,25,94,4
1.15937,1.11923,-23.6302,-0.734353,-0.241937,-103.146,6.71596,-1.17707,-108.26,0.37542,25,95,4
1.41849,-0.94839,24.614,-2.2719,0.174775,132.213,137.076,2.11543,-7.83161,0.048891,25,96,4
1.95436,-0.321774,22.8629,-1.48176,0.0595101,123.447,127.8,1.26284,-5.14296,0.048891,25,97,4
-5.07406,-3.31888,26.3885,-11.887,0.597332,135.154,143.602,6.60491,-32.014,0.0469275,25,98,4
-5.37234,-4.46001,24.6595,-11.3383,0.8109,125.66,132.107,4.07426,-27.2315,0.0469275,25,99,4
-0.0514794,-0.954239,20.2836,-2.2719,0.13935,133.683,137.076,2.11543,-7.83161,0.048891,25,100,4
0.589323,-0.323826,18.8417,-1.48176,0.047079,124.812,127.8,1.26284,-5.14296,0.048891,25,101,4
-6.64952,-3.33476,21.7473,-11.887,0.501188,136.729,143.602,6.60491,-32.014,0.0469275,25,102,4
-6.84538,-4.48397,20.3201,-11.3383,0.665757,127.133,132.107,4.07426,-27.2315,0.0469275,25,103,4
2.07144,0.28501,20.3153,-0.653604,-0.0517526,110.027,113.805,0.835387,-3.19607,0.0977821,25,104,4
1.70018,0.610939,16.9685,-0.0425397,-0.111459,91.8712,94.9847,0.572814,-2.02875,0.0977821,25,105,4
-4.28359,-4.38994,21.848,-10.5168,0.801109,111.805,116.623,1.68574,-21.3048,0.0938551,25,106,4
-2.6349,-3.3844,18.0535,-9.71243,0.618827,93.2894,96.798,-0.0492395,-15.8067,0.0938551,25,107,4
0.85861,0.28652,16.7424,-0.653604,-0.0426072,111.24,113.805,0.835387,-3.19607,0.0977821,25,108,4
0.687161,0.614344,13.9843,-0.0425397,-0.0908366,92.8842,94.9847,0.572814,-2.02875,0.0977821,25,109,4
-5.58919,-4.41448,18.0018,-10.5168,0.652507,113.11,116.623,1.68574,-21.3048,0.0938551,25,110,4
-3.71397,-3.4037,14.8747,-9.71243,0.501893,94.3685,96.798,-0.0492395,-15.8067,0.0938551,25,111,4
0.813445,0.519095,11.967,0.277264,-0.0947018,64.4055,66.592,0.512917,-1.60872,0.195564,25,112,4
-0.0321794,0.205946,5.23492,0.329253,-0.0376307,27.7857,28.741,0.381386,-1.03956,0.195564,25,113,4
-0.934396,-1.43592,12.46,-8.54212,0.262945,65.2712,67.5861,-0.797394,-10.9941,0.18771,25,114,4
0.186973,0.718054,5.16752,-6.74624,-0.130096,27.6452,28.5902,0.296433,-7.8007,0.18771,25,115,4
0.098963,0.521988,9.86216,0.277264,-0.0771817,65.12,66.592,0.512917,-1.60872,0.195564,25,116,4
-0.344758,0.207113,4.31409,0.329253,-0.0305657,28.0983,28.741,0.381386,-1.03956,0.195564,25,117,4
-1.67899,-1.44424,10.2665,-8.54212,0.212571,66.0158,67.5861,-0.797394,-10.9941,0.18771,25,118,4
-0.121738,0.721765,4.25809,-6.74624,-0.107619,27.9539,28.5902,0.296433,-7.8007,0.18771,25,119,4
-0.680171,-0.179082,-4.95835,0.218724,0.0324266,-27.0283,0.881532,0.072422,-28.4437,0.391128,25,120,4
-1.06178,-0.235108,-18.6191,0.0316292,0.0429377,-100.002,2.40314,-0.0359925,-103.399,0.391128,25,121,4
0.638903,2.07434,-5.59332,-3.81802,-0.377456,-29.0833,2.77468,-3.11225,-31.9249,0.37542,25,122,4
2.59324,1.12662,-20.1686,-0.734353,-0.204791,-104.58,6.71596,-1.17707,-108.26,0.37542,25,123,4
-0.38409,-0.180001,-4.08612,0.218724,0.0268582,-27.3243,0.881532,0.072422,-28.4437,0.391128,25,124,4
0.0500211,-0.236432,-15.3439,0.0316292,0.0349138,-101.114,2.40314,-0.0359925,-103.399,0.391128,25,125,4
0.972901,2.08558,-4.6094,-3.81802,-0.309349,-29.4173,2.77468,-3.11225,-31.9249,0.37542,25,126,4
3.79755,1.13266,-16.6208,-0.734353,-0.168218,-105.785,6.71596,-1.17707,-108.26,0.37542,25,127,4
15.8159,-0.89607,47.7668,-2.2719,0.356439,117.815,137.076,2.11543,-7.83161,0.048891,25,128,4
15.3277,-0.303981,44.3692,-1.48176,0.121142,110.074,127.8,1.26284,-5.14296,0.048891,25,129,4
10.3615,-3.13858,51.2112,-11.887,1.23334,119.718,143.602,6.60491,-32.014,0.0469275,25,130,4
9.0516,-4.21611,47.8545,-11.3383,1.66542,111.236,132.107,4.07426,-27.2315,0.0469275,25,131,4
12.8007,-0.908718,44.3286,-2.2719,0.322835,120.831,137.076,2.11543,-7.83161,0.048891,25,132,4
12.5277,-0.308419,41.1764,-1.48176,0.10935,112.874,127.8,1.26284,-5.14296,0.048891,25,133,4
7.12985,-3.1729,47.5263,-11.887,1.14214,122.95,143.602,6.60491,-32.014,0.0469275,25,134,4
6.03005,-4.26793,44.4091,-11.3383,1.52774,114.258,132.107,4.07426,-27.2315,0.0469275,25,135,4
13.9546,0.269437,39.4252,-0.653604,-0.106361,98.1437,113.805,0.835387,-3.19607,0.0977821,25,136,4
11.6257,0.577456,32.9303,-0.0425397,-0.228505,81.9457,94.9847,0.572814,-2.02875,0.0977821,25,137,4
8.49561,-4.1493,42.3974,-10.5168,1.64215,99.0253,116.623,1.68574,-21.3048,0.0938551,25,138,4
7.92479,-3.19864,35.0336,-9.71243,1.2672,82.7297,96.798,-0.0492395,-15.8067,0.0938551,25,139,4
11.4668,0.272702,36.5884,-0.653604,-0.0976857,100.632,113.805,0.835387,-3.19607,0.0977821,25,140,4
9.54775,0.584818,30.5609,-0.0425397,-0.208944,84.0236,94.9847,0.572814,-2.02875,0.0977821,25,141,4
5.81753,-4.20236,39.3436,-10.5168,1.50119,101.703,116.623,1.68574,-21.3048,0.0938551,25,142,4
5.71138,-3.24039,32.5097,-9.71243,1.15628,84.9432,96.798,-0.0492395,-15.8067,0.0938551,25,143,4
7.81333,0.490645,23.2238,0.277264,-0.194153,57.4056,66.592,0.512917,-1.60872,0.195564,25,144,4
3.02989,0.194648,10.1592,0.329253,-0.0770857,24.7236,28.741,0.381386,-1.03956,0.195564,25,145,4
6.35364,-1.35703,24.1794,-8.54212,0.538027,57.9831,67.5861,-0.797394,-10.9941,0.18771,25,146,4
3.20957,0.678877,10.0281,-6.74624,-0.267682,24.6226,28.5902,0.296433,-7.8007,0.18771,25,147,4
6.34776,0.4969,21.5527,0.277264,-0.177533,58.8712,66.592,0.512917,-1.60872,0.195564,25,148,4
2.38872,0.19717,9.42804,0.329253,-0.0703841,25.3648,28.741,0.381386,-1.03956,0.195564,25,149,4
4.8263,-1.37502,22.4378,-8.54212,0.490243,59.5105,67.5861,-0.797394,-10.9941,0.18771,25,150,4
2.57633,0.686902,9.30601,-6.74624,-0.24636,25.2559,28.5902,0.296433,-7.8007,0.18771,25,151,4
-3.58046,-0.169315,-9.62241,0.218724,0.0667407,-24.128,0.881532,0.072422,-28.4437,0.391128,25,152,4
-11.9527,-0.222213,-36.1332,0.0316292,0.0879799,-89.111,2.40314,-0.0359925,-103.399,0.391128,25,153,4
-2.63281,1.96084,-10.8547,-3.81802,-0.774887,-25.8116,2.77468,-3.11225,-31.9249,0.37542,25,154,4
-9.20398,1.06502,-39.1401,-0.734353,-0.420649,-92.783,6.71596,-1.17707,-108.26,0.37542,25,155,4
-2.97313,-0.171303,-8.92988,0.218724,0.0614586,-24.7353,0.881532,0.072422,-28.4437,0.391128,25,156,4
-9.67215,-0.225078,-33.5328,0.0316292,0.0803686,-91.3915,2.40314,-0.0359925,-103.399,0.391128,25,157,4
-1.9477,1.98516,-10.0734,-3.81802,-0.710282,-26.4967,2.77468,-3.11225,-31.9249,0.37542,25,158,4
-6.73365,1.07808,-36.3232,-0.734353,-0.385956,-95.2534,6.71596,-1.17707,-108.26,0.37542,25,159,4
10.0174,-0.917464,40.7014,-2.2719,0.29707,123.614,137.076,2.11543,-7.83161,0.048891,25,160,4
9.9416,-0.311254,37.8062,-1.48176,0.101001,115.46,127.8,1.26284,-5.14296,0.048891,25,161,4
4.14486,-3.21252,43.6362,-11.887,1.02542,125.935,143.602,6.60491,-32.014,0.0469275,25,162,4
3.24244,-4.31601,40.7762,-11.3383,1.38611,117.046,132.107,4.07426,-27.2315,0.0469275,25,163,4
7.47676,-0.927886,36.899,-2.2719,0.262711,126.155,137.076,2.11543,-7.83161,0.048891,25,164,4
7.5823,-0.314911,34.2752,-1.48176,0.0889441,117.819,127.8,1.26284,-5.14296,0.048891,25,165,4
1.42185,-3.24081,39.5609,-11.887,0.932174,128.658,143.602,6.60491,-32.014,0.0469275,25,166,4
0.696456,-4.35871,36.9658,-11.3383,1.24534,119.592,132.107,4.07426,-27.2315,0.0469275,25,167,4
9.16866,0.275816,33.5935,-0.653604,-0.0885111,102.93,113.805,0.835387,-3.19607,0.0977821,25,168,4
7.6282,0.591164,28.0593,-0.0425397,-0.190249,85.9431,94.9847,0.572814,-2.02875,0.0977821,25,169,4
3.34888,-4.24782,36.1264,-10.5168,1.36726,104.172,116.623,1.68574,-21.3048,0.0938551,25,170,4
3.67197,-3.27467,29.8519,-9.71243,1.05529,86.9826,96.798,-0.0492395,-15.8067,0.0938551,25,171,4
7.07242,0.278507,30.4562,-0.653604,-0.079641,105.026,113.805,0.835387,-3.19607,0.0977821,25,172,4
5.87733,0.597232,25.4389,-0.0425397,-0.170247,87.694,94.9847,0.572814,-2.02875,0.0977821,25,173,4
1.09232,-4.29154,32.7492,-10.5168,1.22313,106.429,116.623,1.68574,-21.3048,0.0938551,25,174,4
1.80693,-3.30907,27.0607,-9.71243,0.941872,88.8476,96.798,-0.0492395,-15.8067,0.0938551,25,175,4
4.99414,0.502293,19.7886,0.277264,-0.161647,60.2248,66.592,0.512917,-1.60872,0.195564,25,176,4
1.79665,0.199273,8.65644,0.329253,-0.0641901,25.9569,28.741,0.381386,-1.03956,0.195564,25,177,4
3.41844,-1.38931,20.6031,-8.54212,0.448121,60.9183,67.5861,-0.797394,-10.9941,0.18771,25,178,4
1.99223,0.69493,8.5448,-6.74624,-0.222708,25.84,28.5902,0.296433,-7.8007,0.18771,25,179,4
3.75925,0.507448,17.9405,0.277264,-0.144654,61.4597,66.592,0.512917,-1.60872,0.195564,25,180,4
1.2564,0.201351,7.84789,0.329253,-0.0573379,26.4971,28.741,0.381386,-1.03956,0.195564,25,181,4
2.13149,-1.40414,18.677,-8.54212,0.399263,62.2053,67.5861,-0.797394,-10.9941,0.18771,25,182,4
1.45866,0.701544,7.74626,-6.74624,-0.200908,26.3735,28.5902,0.296433,-7.8007,0.18771,25,183,4
-2.41238,-0.173317,-8.19909,0.218724,0.0555241,-25.296,0.881532,0.072422,-28.4437,0.391128,25,184,4
-7.56642,-0.227492,-30.7885,0.0316292,0.0732581,-93.4972,2.40314,-0.0359925,-103.399,0.391128,25,185,4
-1.31514,2.00732,-9.24908,-3.81802,-0.644982,-27.1293,2.77468,-3.11225,-31.9249,0.37542,25,186,4
-4.45269,1.09025,-33.3506,-0.734353,-0.350092,-97.5343,6.71596,-1.17707,-108.26,0.37542,25,187,4
-1.90064,-0.174956,-7.43322,0.218724,0.0501233,-25.8078,0.881532,0.072422,-28.4437,0.391128,25,188,4
-5.64481,-0.229852,-27.9126,0.0316292,0.0654757,-95.4189,2.40314,-0.0359925,-103.399,0.391128,25,189,4
-0.73786,2.02736,-8.38512,-3.81802,-0.578926,-27.7066,2.77468,-3.11225,-31.9249,0.37542,25,190,4
-2.37117,1.10101,-30.2354,-0.734353,-0.31462,-99.6158,6.71596,-1.17707,-108.26,0.37542,25,191,4
29.9167,-0.841879,59.3389,-2.2719,0.47035,103.715,137.076,2.11543,-7.83161,0.048891,25,192,4
28.4255,-0.285569,55.1184,-1.48176,0.159783,96.976,127.8,1.26284,-5.14296,0.048891,25,193,4
25.4791,-2.95074,63.6181,-11.887,1.63245,104.601,143.602,6.60491,-32.014,0.0469275,25,194,4
23.1782,-3.96266,59.4476,-11.3383,2.20149,97.1099,132.107,4.07426,-27.2315,0.0469275,25,195,4
26.1143,-0.858805,56.7982,-2.2719,0.438685,107.517,137.076,2.11543,-7.83161,0.048891,25,196,4
24.8945,-0.291508,52.7591,-1.48176,0.148671,100.507,127.8,1.26284,-5.14296,0.048891,25,197,4
21.4038,-2.99668,60.8951,-11.887,1.54651,108.676,143.602,6.60491,-32.014,0.0469275,25,198,4
19.3678,-4.03201,56.9016,-11.3383,2.07175,100.92,132.107,4.07426,-27.2315,0.0469275,25,199,4
25.5929,0.253249,48.9767,-0.653604,-0.140619,86.5054,113.805,0.835387,-3.19607,0.0977821,25,200,4
21.3467,0.54269,40.9083,-0.0425397,-0.301923,72.2246,94.9847,0.572814,-2.02875,0.0977821,25,201,4
21.0112,-3.89946,52.6681,-10.5168,2.1697,86.5097,116.623,1.68574,-21.3048,0.0938551,25,202,4
18.2666,-3.00587,43.5203,-9.71243,1.67386,72.3879,96.798,-0.0492395,-15.8067,0.0938551,25,203,4
22.4557,0.257618,46.8805,-0.653604,-0.132445,89.6426,113.805,0.835387,-3.19607,0.0977821,25,204,4
18.7264,0.552542,39.1575,-0.0425397,-0.28349,74.845,94.9847,0.572814,-2.02875,0.0977821,25,205,4
17.634,-3.97046,50.4116,-10.5168,2.03687,89.8869,116.623,1.68574,-21.3048,0.0938551,25,206,4
15.4754,-3.06174,41.6553,-9.71243,1.56934,75.1791,96.798,-0.0492395,-15.8067,0.0938551,25,207,4
14.669,0.461106,28.8502,0.277264,-0.256534,50.5499,66.592,0.512917,-1.60872,0.195564,25,208,4
6.02887,0.182921,12.6204,0.329253,-0.101833,21.7247,28.741,0.381386,-1.03956,0.195564,25,209,4
13.4914,-1.2752,30.0369,-8.54212,0.710552,50.8454,67.5861,-0.797394,-10.9941,0.18771,25,210,4
6.16984,0.638129,12.4574,-6.74624,-0.354003,21.6624,28.5902,0.296433,-7.8007,0.18771,25,211,4
12.8209,0.469477,27.6153,0.277264,-0.240873,52.3981,66.592,0.512917,-1.60872,0.195564,25,212,4
5.22033,0.186296,12.0801,0.329253,-0.0955178,22.5332,28.741,0.381386,-1.03956,0.195564,25,213,4
11.5653,-1.29926,28.7499,-8.54212,0.665525,52.7715,67.5861,-0.797394,-10.9941,0.18771,25,214,4
5.37129,0.648869,11.9239,-6.74624,-0.333911,22.4609,28.5902,0.296433,-7.8007,0.18771,25,215,4
-6.421,-0.159155,-11.9536,0.218724,0.0882697,-21.2874,0.881532,0.072422,-28.4437,0.391128,25,216,4
-22.6192,-0.208829,-44.887,0.0316292,0.116232,-78.4444,2.40314,-0.0359925,-103.399,0.391128,25,217,4
-5.8371,1.84292,-13.4844,-3.81802,-1.0242,-22.6073,2.77468,-3.11225,-31.9249,0.37542,25,218,4
-20.7581,1.001,-48.6223,-0.734353,-0.556063,-81.2289,6.71596,-1.17707,-108.26,0.37542,25,219,4
-5.65512,-0.161815,-11.4418,0.218724,0.0832924,-22.0533,0.881532,0.072422,-28.4437,0.391128,25,220,4
-19.7433,-0.212662,-42.9654,0.0316292,0.10906,-81.3203,2.40314,-0.0359925,-103.399,0.391128,25,221,4
-4.97314,1.87546,-12.9071,-3.81802,-0.963321,-23.4713,2.77468,-3.11225,-31.9249,0.37542,25,222,4
-17.6429,1.01848,-46.5408,-0.734353,-0.523372,-84.3441,6.71596,-1.17707,-108.26,0.37542,25,223,4
22.4871,-0.870839,54.015,-2.2719,0.414282,111.144,137.076,2.11543,-7.83161,0.048891,25,224,4
21.5243,-0.295407,50.173,-1.48176,0.140764,103.877,127.8,1.26284,-5.14296,0.048891,25,225,4
17.5137,-3.05119,57.9101,-11.887,1.43597,112.566,143.602,6.60491,-32.014,0.0469275,25,226,4
15.735,-4.09816,54.114,-11.3383,1.9376,104.553,132.107,4.07426,-27.2315,0.0469275,25,227,4
19.0488,-0.885658,50.9997,-2.2719,0.381577,114.582,137.076,2.11543,-7.83161,0.048891,25,228,4
18.3315,-0.300607,47.373,-1.48176,0.129287,107.07,127.8,1.26284,-5.14296,0.048891,25,229,4
13.8287,-3.09141,54.6784,-11.887,1.34721,116.251,143.602,6.60491,-32.014,0.0469275,25,230,4
12.2895,-4.15887,51.0924,-11.3383,1.80361,107.999,132.107,4.07426,-27.2315,0.0469275,25,231,4
19.4607,0.261904,44.5824,-0.653604,-0.123755,92.6376,113.805,0.835387,-3.19607,0.0977821,25,232,4
16.2247,0.561274,37.2379,-0.0425397,-0.265783,77.3466,94.9847,0.572814,-2.02875,0.0977821,25,233,4
14.4168,-4.03302,47.9429,-10.5168,1.91001,93.1041,116.623,1.68574,-21.3048,0.0938551,25,234,4
12.8176,-3.10891,39.6159,-9.71243,1.47369,77.837,96.798,-0.0492395,-15.8067,0.0938551,25,235,4
16.6239,0.265729,42.0946,-0.653604,-0.115312,95.4744,113.805,0.835387,-3.19607,0.0977821,25,236,4
13.8553,0.5699,35.16,-0.0425397,-0.246745,79.716,94.9847,0.572814,-2.02875,0.0977821,25,237,4
11.3631,-4.09518,45.2649,-10.5168,1.77282,96.1579,116.623,1.68574,-21.3048,0.0938551,25,238,4
10.2937,-3.15783,37.4025,-9.71243,1.36573,80.3609,96.798,-0.0492395,-15.8067,0.0938551,25,239,4
11.0568,0.476897,26.2617,0.277264,-0.225827,54.1621,66.592,0.512917,-1.60872,0.195564,25,240,4
4.44873,0.189189,11.488,0.329253,-0.0896513,23.3048,28.741,0.381386,-1.03956,0.195564,25,241,4
9.73054,-1.31894,27.3421,-8.54212,0.625629,54.6062,67.5861,-0.797394,-10.9941,0.18771,25,242,4
4.61009,0.659916,11.3398,-6.74624,-0.31151,23.2221,28.5902,0.296433,-7.8007,0.18771,25,243,4
9.38562,0.484225,24.7961,0.277264,-0.209652,55.8333,66.592,0.512917,-1.60872,0.195564,25,244,4
3.71761,0.192145,10.8469,0.329253,-0.083129,24.0359,28.741,0.381386,-1.03956,0.195564,25,245,4
7.98895,-1.34001,25.8147,-8.54212,0.579124,56.3478,67.5861,-0.797394,-10.9941,0.18771,25,246,4
3.88802,0.669318,10.7065,-6.74624,-0.290759,23.9442,28.5902,0.296433,-7.8007,0.18771,25,247,4
-4.92433,-0.164587,-10.8811,0.218724,0.0776715,-22.7841,0.881532,0.072422,-28.4437,0.391128,25,248,4
-16.9991,-0.215983,-40.8597,0.0316292,0.102325,-84.0646,2.40314,-0.0359925,-103.399,0.391128,25,249,4
-4.14877,1.90596,-12.2745,-3.81802,-0.901473,-24.2957,2.77468,-3.11225,-31.9249,0.37542,25,250,4
-14.6703,1.03523,-44.2599,-0.734353,-0.489404,-87.3167,6.71596,-1.17707,-108.26,0.37542,25,251,4
-4.23181,-0.166916,-10.2737,0.218724,0.0725308,-23.4766,0.881532,0.072422,-28.4437,0.391128,25,252,4
-14.3986,-0.21934,-38.5791,0.0316292,0.0949174,-86.665,2.40314,-0.0359925,-103.399,0.391128,25,253,4
-3.36756,1.93445,-11.5894,-3.81802,-0.838597,-25.0769,2.77468,-3.11225,-31.9249,0.37542,25,254,4
-11.8534,1.05053,-41.7895,-0.734353,-0.45564,-90.1336,6.71596,-1.17707,-108.26,0.37542,25,255,4
46.532,-0.773284,66.8671,-2.2719,0.576214,87.0993,137.076,2.11543,-7.83161,0.048891,25,256,4
43.8591,-0.26227,62.1114,-1.48176,0.19569,81.5424,127.8,1.26284,-5.14296,0.048891,25,257,4
43.2926,-2.71242,71.6895,-11.887,2.00363,86.7872,143.602,6.60491,-32.014,0.0469275,25,258,4
39.8239,-3.64141,66.9894,-11.3383,2.69988,80.4641,132.107,4.07426,-27.2315,0.0469275,25,259,4
42.2016,-0.794198,65.3972,-2.2719,0.547028,91.4297,137.076,2.11543,-7.83161,0.048891,25,260,4
39.8378,-0.269609,60.7463,-1.48176,0.185449,85.5636,127.8,1.26284,-5.14296,0.048891,25,261,4
38.6515,-2.76918,70.114,-11.887,1.92443,91.4284,143.602,6.60491,-32.014,0.0469275,25,262,4
35.4845,-3.72709,65.5164,-11.3383,2.58031,84.8036,132.107,4.07426,-27.2315,0.0469275,25,263,4
39.3068,0.232728,55.1905,-0.653604,-0.172472,72.7915,113.805,0.835387,-3.19607,0.0977821,25,264,4
32.8014,0.498638,46.0985,-0.0425397,-0.370176,60.7699,94.9847,0.572814,-2.02875,0.0977821,25,265,4
35.7586,-3.5829,59.3496,-10.5168,2.66012,71.7623,116.623,1.68574,-21.3048,0.0938551,25,266,4
30.4526,-2.76167,49.0412,-9.71243,2.05189,60.202,96.798,-0.0492395,-15.8067,0.0938551,25,267,4
35.7339,0.238127,53.9777,-0.653604,-0.164938,76.3644,113.805,0.835387,-3.19607,0.0977821,25,268,4
29.8171,0.510812,45.0855,-0.0425397,-0.353186,63.7542,94.9847,0.572814,-2.02875,0.0977821,25,269,4
31.9125,-3.67063,58.0441,-10.5168,2.53769,75.6084,116.623,1.68574,-21.3048,0.0938551,25,270,4
27.2737,-2.83071,47.9622,-9.71243,1.95555,63.3808,96.798,-0.0492395,-15.8067,0.0938551,25,271,4
22.7473,0.423677,32.5105,0.277264,-0.314525,42.4716,66.592,0.512917,-1.60872,0.195564,25,272,4
9.56268,0.168064,14.2215,0.329253,-0.124838,18.1909,28.741,0.381386,-1.03956,0.195564,25,273,4
21.9019,-1.17154,33.8474,-8.54212,0.870919,42.4349,67.5861,-0.797394,-10.9941,0.18771,25,274,4
9.65801,0.586463,14.0378,-6.74624,-0.434267,18.1742,28.5902,0.296433,-7.8007,0.18771,25,275,4
20.6425,0.43402,31.796,0.277264,-0.300091,44.5764,66.592,0.512917,-1.60872,0.195564,25,276,4
8.64185,0.172235,13.9089,0.329253,-0.119017,19.1117,28.741,0.381386,-1.03956,0.195564,25,277,4
19.7084,-1.20128,33.1028,-8.54212,0.829419,44.6284,67.5861,-0.797394,-10.9941,0.18771,25,278,4
8.74857,0.599733,13.7291,-6.74624,-0.415749,19.0836,28.5902,0.296433,-7.8007,0.18771,25,279,4
-9.76809,-0.146272,-13.4701,0.218724,0.108288,-17.9403,0.881532,0.072422,-28.4437,0.391128,25,280,4
-35.1879,-0.191871,-50.5819,0.0316292,0.142495,-65.8757,2.40314,-0.0359925,-103.399,0.391128,25,281,4
-9.61282,1.69347,-15.1951,-3.81802,-1.25599,-18.8316,2.77468,-3.11225,-31.9249,0.37542,25,282,4
-34.3728,0.919859,-54.7911,-0.734353,-0.681963,-67.6143,6.71596,-1.17707,-108.26,0.37542,25,283,4
-8.89586,-0.149559,-13.174,0.218724,0.103701,-18.8126,0.881532,0.072422,-28.4437,0.391128,25,284,4
-31.9127,-0.196608,-49.4701,0.0316292,0.135885,-69.151,2.40314,-0.0359925,-103.399,0.391128,25,285,4
-8.6289,1.73368,-14.8611,-3.81802,-1.19988,-19.8155,2.77468,-3.11225,-31.9249,0.37542,25,286,4
-30.825,0.94145,-53.5867,-0.734353,-0.651832,-71.1621,6.71596,-1.17707,-108.26,0.37542,25,287,4
37.9776,-0.809315,63.6475,-2.2719,0.524405,95.6537,137.076,2.11543,-7.83161,0.048891,25,288,4
35.9131,-0.274507,59.1207,-1.48176,0.178118,89.4883,127.8,1.26284,-5.14296,0.048891,25,289,4
34.1213,-2.83766,68.2376,-11.887,1.82194,95.9585,143.602,6.60491,-32.014,0.0469275,25,290,4
31.2539,-3.81019,63.764,-11.3383,2.45594,89.0342,132.107,4.07426,-27.2315,0.0469275,25,291,4
33.8762,-0.828275,61.6249,-2.2719,0.493914,99.7552,137.076,2.11543,-7.83161,0.048891,25,292,4
32.1044,-0.28116,57.2424,-1.48176,0.167418,93.297,127.8,1.26284,-5.14296,0.048891,25,293,4
29.7255,-2.88912,66.0698,-11.887,1.73919,100.354,143.602,6.60491,-32.014,0.0469275,25,294,4
27.1438,-3.88787,61.7371,-11.3383,2.33102,93.1442,132.107,4.07426,-27.2315,0.0469275,25,295,4
32.2462,0.24351,52.533,-0.653604,-0.156882,79.8521,113.805,0.835387,-3.19607,0.0977821,25,296,4
26.904,0.521781,43.8788,-0.0425397,-0.336771,66.6674,94.9847,0.572814,-2.02875,0.0977821,25,297,4
28.166,-3.74921,56.4922,-10.5168,2.42009,79.355,116.623,1.68574,-21.3048,0.0938551,25,298,4
24.1787,-2.88996,46.6801,-9.71243,1.86687,66.4759,96.798,-0.0492395,-15.8067,0.0938551,25,299,4
28.8622,0.248404,50.8642,-0.653604,-0.14901,83.2361,113.805,0.835387,-3.19607,0.0977821,25,300,4
24.0775,0.532818,42.4849,-0.0425397,-0.319021,69.4939,94.9847,0.572814,-2.02875,0.0977821,25,301,4
24.5231,-3.82874,54.6957,-10.5168,2.29219,82.9978,116.623,1.68574,-21.3048,0.0938551,25,302,4
21.1679,-2.95255,45.1954,-9.71243,1.76623,69.4867,96.798,-0.0492395,-15.8067,0.0938551,25,303,4
18.5882,0.443341,30.9451,0.277264,-0.286142,46.6307,66.592,0.512917,-1.60872,0.195564,25,304,4
7.7433,0.175869,13.5368,0.329253,-0.113578,20.0102,28.741,0.381386,-1.03956,0.195564,25,305,4
17.5717,-1.22599,32.2178,-8.54212,0.792432,46.765,67.5861,-0.797394,-10.9941,0.18771,25,306,4
7.86213,0.61361,13.3619,-6.74624,-0.394981,19.9701,28.5902,0.296433,-7.8007,0.18771,25,307,4
16.5947,0.452718,29.962,0.277264,-0.271063,48.6243,66.592,0.512917,-1.60872,0.195564,25,308,4
6.87115,0.17965,13.1067,0.329253,-0.107498,20.8824,28.741,0.381386,-1.03956,0.195564,25,309,4
15.4942,-1.25295,31.1932,-8.54212,0.749075,48.8426,67.5861,-0.797394,-10.9941,0.18771,25,310,4
7.00077,0.62564,12.9372,-6.74624,-0.375635,20.8314,28.5902,0.296433,-7.8007,0.18771,25,311,4
-8.04484,-0.153041,-12.8215,0.218724,0.09849,-19.6636,0.881532,0.072422,-28.4437,0.391128,25,312,4
-28.7169,-0.20078,-48.1463,0.0316292,0.129641,-72.3467,2.40314,-0.0359925,-103.399,0.391128,25,313,4
-7.6689,1.77199,-14.4635,-3.81802,-1.14254,-20.7755,2.77468,-3.11225,-31.9249,0.37542,25,314,4
-27.3633,0.962492,-52.1529,-0.734353,-0.620341,-74.6237,6.71596,-1.17707,-108.26,0.37542,25,315,4
-7.21872,-0.156021,-12.4141,0.218724,0.0936972,-20.4897,0.881532,0.072422,-28.4437,0.391128,25,316,4
-25.6148,-0.205074,-46.6165,0.0316292,0.122735,-75.4488,2.40314,-0.0359925,-103.399,0.391128,25,317,4
-6.73698,1.80844,-14.0039,-3.81802,-1.08392,-21.7075,2.77468,-3.11225,-31.9249,0.37542,25,318,4
-24.003,0.982066,-50.4958,-0.734353,-0.588863,-77.984,6.71596,-1.17707,-108.26,0.37542,25,319,4
64.5296,-0.691458,69.8385,-2.2719,0.672218,69.1017,137.076,2.11543,-7.83161,0.048891,25,320,4
60.5767,-0.234483,64.8716,-1.48176,0.228249,64.8247,127.8,1.26284,-5.14296,0.048891,25,321,4
62.5883,-2.42769,74.8753,-11.887,2.34054,67.4916,143.602,6.60491,-32.014,0.0469275,25,322,4
57.8545,-3.25785,69.966,-11.3383,3.15209,62.4336,132.107,4.07426,-27.2315,0.0469275,25,323,4
59.9664,-0.716002,69.5394,-2.2719,0.646012,73.665,137.076,2.11543,-7.83161,0.048891,25,324,4
56.3391,-0.243096,64.5938,-1.48176,0.219053,69.0623,127.8,1.26284,-5.14296,0.048891,25,325,4
57.6975,-2.4943,74.5548,-11.887,2.26941,72.3824,143.602,6.60491,-32.014,0.0469275,25,326,4
53.2816,-3.35841,69.6663,-11.3383,3.04472,67.0064,132.107,4.07426,-27.2315,0.0469275,25,327,4
54.1616,0.208225,57.6432,-0.653604,-0.201374,57.9367,113.805,0.835387,-3.19607,0.0977821,25,328,4
45.2091,0.446054,48.1471,-0.0425397,-0.432094,48.3623,94.9847,0.572814,-2.02875,0.0977821,25,329,4
51.7329,-3.20503,61.9866,-10.5168,3.10502,55.7881,116.623,1.68574,-21.3048,0.0938551,25,330,4
43.6522,-2.47022,51.22,-9.71243,2.39481,47.0023,96.798,-0.0492395,-15.8067,0.0938551,25,331,4
50.3966,0.214561,57.3964,-0.653604,-0.194608,61.7017,113.805,0.835387,-3.19607,0.0977821,25,332,4
42.0643,0.460342,47.941,-0.0425397,-0.416839,51.507,94.9847,0.572814,-2.02875,0.0977821,25,333,4
47.6798,-3.30799,61.7209,-10.5168,2.99509,59.8411,116.623,1.68574,-21.3048,0.0938551,25,334,4
40.3024,-2.55124,51.0005,-9.71243,2.30831,50.3521,96.798,-0.0492395,-15.8067,0.0938551,25,335,4
31.4977,0.378998,33.9552,0.277264,-0.367135,33.7212,66.592,0.512917,-1.60872,0.195564,25,336,4
13.3905,0.150332,14.8535,0.329253,-0.145706,14.3631,28.741,0.381386,-1.03956,0.195564,25,337,4
31.012,-1.04784,35.3512,-8.54212,1.01639,33.3247,67.5861,-0.797394,-10.9941,0.18771,25,338,4
13.4364,0.524763,14.6616,-6.74624,-0.507101,14.3958,28.5902,0.296433,-7.8007,0.18771,25,339,4
29.2797,0.391137,33.8099,0.277264,-0.354175,35.9392,66.592,0.512917,-1.60872,0.195564,25,340,4
12.4201,0.155227,14.7899,0.329253,-0.14048,15.3334,28.741,0.381386,-1.03956,0.195564,25,341,4
28.7006,-1.08274,35.1997,-8.54212,0.979121,35.6362,67.5861,-0.797394,-10.9941,0.18771,25,342,4
12.478,0.540336,14.5988,-6.74624,-0.490473,15.3542,28.5902,0.296433,-7.8007,0.18771,25,343,4
-13.3936,-0.130886,-14.0687,0.218724,0.126454,-14.3148,0.881532,0.072422,-28.4437,0.391128,25,344,4
-48.8023,-0.17163,-52.8296,0.0316292,0.16632,-52.2614,2.40314,-0.0359925,-103.399,0.391128,25,345,4
-13.7027,1.51505,-15.8704,-3.81802,-1.46628,-14.7418,2.77468,-3.11225,-31.9249,0.37542,25,346,4
-49.1201,0.822975,-57.2259,-0.734353,-0.796194,-52.867,6.71596,-1.17707,-108.26,0.37542,25,347,4
-12.4745,-0.134744,-14.0085,0.218724,0.122335,-15.2339,0.881532,0.072422,-28.4437,0.391128,25,348,4
-45.3509,-0.177189,-52.6034,0.0316292,0.160385,-55.7128,2.40314,-0.0359925,-103.399,0.391128,25,349,4
-12.6658,1.56223,-15.8024,-3.81802,-1.4159,-15.7786,2.77468,-3.11225,-31.9249,0.37542,25,350,4
-45.3814,0.848315,-56.9808,-0.734353,-0.76914,-56.6056,6.71596,-1.17707,-108.26,0.37542,25,351,4
55.4335,-0.733942,68.9426,-2.2719,0.625555,78.1979,137.076,2.11543,-7.83161,0.048891,25,352,4
52.1274,-0.248909,64.0393,-1.48176,0.212424,73.274,127.8,1.26284,-5.14296,0.048891,25,353,4
52.836,-2.57557,73.9147,-11.887,2.17675,77.2438,143.602,6.60491,-32.014,0.0469275,25,354,4
48.7416,-3.45703,69.0686,-11.3383,2.93226,71.5464,132.107,4.07426,-27.2315,0.0469275,25,355,4
50.9482,-0.75672,68.0505,-2.2719,0.5978,82.6831,137.076,2.11543,-7.83161,0.048891,25,356,4
47.9624,-0.256902,63.2109,-1.48176,0.202685,77.4391,127.8,1.26284,-5.14296,0.048891,25,357,4
48.0289,-2.63739,72.9585,-11.887,2.10142,82.0509,143.602,6.60491,-32.014,0.0469275,25,358,4
44.247,-3.55035,68.1746,-11.3383,2.81855,76.041,132.107,4.07426,-27.2315,0.0469275,25,359,4
46.6538,0.220949,56.9037,-0.653604,-0.187324,65.4445,113.805,0.835387,-3.19607,0.0977821,25,360,4
38.9381,0.47336,47.5294,-0.0425397,-0.401996,54.6332,94.9847,0.572814,-2.02875,0.0977821,25,361,4
43.6593,-3.40125,61.1916,-10.5168,2.88875,63.8616,116.623,1.68574,-21.3048,0.0938551,25,362,4
36.981,-2.62156,50.5632,-9.71243,2.22812,53.6735,96.798,-0.0492395,-15.8067,0.0938551,25,363,4
42.9532,0.22683,56.1676,-0.653604,-0.180159,69.1451,113.805,0.835387,-3.19607,0.0977821,25,364,4
35.8472,0.486619,46.9146,-0.0425397,-0.385839,57.7242,94.9847,0.572814,-2.02875,0.0977821,25,365,4
39.6757,-3.4968,60.3992,-10.5168,2.77233,67.8453,116.623,1.68574,-21.3048,0.0938551,25,366,4
33.6885,-2.69675,49.9083,-9.71243,2.1365,56.966,96.798,-0.0492395,-15.8067,0.0938551,25,367,4
27.0751,0.402199,33.5196,0.277264,-0.341562,38.1438,66.592,0.512917,-1.60872,0.195564,25,368,4
11.4559,0.15954,14.663,0.329253,-0.135562,16.2977,28.741,0.381386,-1.03956,0.195564,25,369,4
26.4077,-1.11207,34.8979,-8.54212,0.945677,37.9291,67.5861,-0.797394,-10.9941,0.18771,25,370,4
11.5267,0.556805,14.4735,-6.74624,-0.471694,16.3055,28.5902,0.296433,-7.8007,0.18771,25,371,4
24.8951,0.413464,33.086,0.277264,-0.327835,40.3238,66.592,0.512917,-1.60872,0.195564,25,372,4
10.5021,0.164082,14.4732,0.329253,-0.130027,17.2514,28.741,0.381386,-1.03956,0.195564,25,373,4
24.1357,-1.14446,34.4459,-8.54212,0.90621,40.201,67.5861,-0.797394,-10.9941,0.18771,25,374,4
10.5848,0.571258,14.2862,-6.74624,-0.454083,17.2474,28.5902,0.296433,-7.8007,0.18771,25,375,4
-11.5612,-0.138876,-13.8882,0.218724,0.117623,-16.1472,0.881532,0.072422,-28.4437,0.391128,25,376,4
-41.9215,-0.18214,-52.1519,0.0316292,0.154739,-59.1422,2.40314,-0.0359925,-103.399,0.391128,25,377,4
-11.6356,1.6077,-15.6668,-3.81802,-1.36406,-16.8088,2.77468,-3.11225,-31.9249,0.37542,25,378,4
-41.6666,0.873287,-56.4918,-0.734353,-0.740664,-60.3204,6.71596,-1.17707,-108.26,0.37542,25,379,4
-10.6578,-0.142457,-13.7085,0.218724,0.113261,-17.0506,0.881532,0.072422,-28.4437,0.391128,25,380,4
-38.5291,-0.1873,-51.4771,0.0316292,0.148452,-62.5345,2.40314,-0.0359925,-103.399,0.391128,25,381,4
-10.6165,1.65149,-15.4641,-3.81802,-1.3107,-17.8279,2.77468,-3.11225,-31.9249,0.37542,25,382,4
-37.992,0.896803,-55.7608,-0.734353,-0.71201,-63.995,6.71596,-1.17707,-108.26,0.37542,25,383,4
82.6831,-0.5978,68.0505,-2.2719,0.75672,50.9482,137.076,2.11543,-7.83161,0.048891,25,384,4
77.4391,-0.202685,63.2109,-1.48176,0.256902,47.9624,127.8,1.26284,-5.14296,0.048891,25,385,4
82.0509,-2.10142,72.9585,-11.887,2.63739,48.0289,143.602,6.60491,-32.014,0.0469275,25,386,4
76.041,-2.81855,68.1746,-11.3383,3.55035,44.247,132.107,4.07426,-27.2315,0.0469275,25,387,4
78.1979,-0.625555,68.9426,-2.2719,0.733942,55.4335,137.076,2.11543,-7.83161,0.048891,25,388,4
73.274,-0.212424,64.0393,-1.48176,0.248909,52.1274,127.8,1.26284,-5.14296,0.048891,25,389,4
77.2438,-2.17675,73.9147,-11.887,2.57557,52.836,143.602,6.60491,-32.014,0.0469275,25,390,4
71.5464,-2.93226,69.0686,-11.3383,3.45703,48.7416,132.107,4.07426,-27.2315,0.0469275,25,391,4
69.1451,0.180159,56.1676,-0.653604,-0.22683,42.9532,113.805,0.835387,-3.19607,0.0977821,25,392,4
57.7242,0.385839,46.9146,-0.0425397,-0.486619,35.8472,94.9847,0.572814,-2.02875,0.0977821,25,393,4
67.8453,-2.77233,60.3992,-10.5168,3.4968,39.6757,116.623,1.68574,-21.3048,0.0938551,25,394,4
56.966,-2.1365,49.9083,-9.71243,2.69675,33.6885,96.798,-0.0492395,-15.8067,0.0938551,25,395,4
65.4445,0.187324,56.9037,-0.653604,-0.220949,46.6538,113.805,0.835387,-3.19607,0.0977821,25,396,4
54.6332,0.401996,47.5294,-0.0425397,-0.47336,38.9381,94.9847,0.572814,-2.02875,0.0977821,25,397,4
63.8616,-2.88875,61.1916,-10.5168,3.40125,43.6593,116.623,1.68574,-21.3048,0.0938551,25,398,4
53.6735,-2.22812,50.5632,-9.71243,2.62156,36.981,96.798,-0.0492395,-15.8067,0.0938551,25,399,4
40.3238,0.327835,33.086,0.277264,-0.413464,24.8951,66.592,0.512917,-1.60872,0.195564,25,400,4
17.2514,0.130027,14.4732,0.329253,-0.164082,10.5021,28.741,0.381386,-1.03956,0.195564,25,401,4
40.201,-0.90621,34.4459,-8.54212,1.14446,24.1357,67.5861,-0.797394,-10.9941,0.18771,25,402,4
17.2474,0.454083,14.2862,-6.74624,-0.571258,10.5848,28.5902,0.296433,-7.8007,0.18771,25,403,4
38.1438,0.341562,33.5196,0.277264,-0.402199,27.0751,66.592,0.512917,-1.60872,0.195564,25,404,4
16.2977,0.135562,14.663,0.329253,-0.15954,11.4559,28.741,0.381386,-1.03956,0.195564,25,405,4
37.9291,-0.945677,34.8979,-8.54212,1.11207,26.4077,67.5861,-0.797394,-10.9941,0.18771,25,406,4
16.3055,0.471694,14.4735,-6.74624,-0.556805,11.5267,28.5902,0.296433,-7.8007,0.18771,25,407,4
-17.0506,-0.113261,-13.7085,0.218724,0.142457,-10.6578,0.881532,0.072422,-28.4437,0.391128,25,408,4
-62.5345,-0.148452,-51.4771,0.0316292,0.1873,-38.5291,2.40314,-0.0359925,-103.399,0.391128,25,409,4
-17.8279,1.3107,-15.4641,-3.81802,-1.65149,-10.6165,2.77468,-3.11225,-31.9249,0.37542,25,410,4
-63.995,0.71201,-55.7608,-0.734353,-0.896803,-37.992,6.71596,-1.17707,-108.26,0.37542,25,411,4
-16.1472,-0.117623,-13.8882,0.218724,0.138876,-11.5612,0.881532,0.072422,-28.4437,0.391128,25,412,4
-59.1422,-0.154739,-52.1519,0.0316292,0.18214,-41.9215,2.40314,-0.0359925,-103.399,0.391128,25,413,4
-16.8088,1.36406,-15.6668,-3.81802,-1.6077,-11.6356,2.77468,-3.11225,-31.9249,0.37542,25,414,4
-60.3204,0.740664,-56.4918,-0.734353,-0.873287,-41.6666,6.71596,-1.17707,-108.26,0.37542,25,415,4
73.665,-0.646012,69.5394,-2.2719,0.716002,59.9664,137.076,2.11543,-7.83161,0.048891,25,416,4
69.0623,-0.219053,64.5938,-1.48176,0.243096,56.3391,127.8,1.26284,-5.14296,0.048891,25,417,4
72.3824,-2.26941,74.5548,-11.887,2.4943,57.6975,143.602,6.60491,-32.014,0.0469275,25,418,4
67.0064,-3.04472,69.6663,-11.3383,3.35841,53.2816,132.107,4.07426,-27.2315,0.0469275,25,419,4
69.1017,-0.672218,69.8385,-2.2719,0.691458,64.5296,137.076,2.11543,-7.83161,0.048891,25,420,4
64.8247,-0.228249,64.8716,-1.48176,0.234483,60.5767,127.8,1.26284,-5.14296,0.048891,25,421,4
67.4916,-2.34054,74.8753,-11.887,2.42769,62.5883,143.602,6.60491,-32.014,0.0469275,25,422,4
62.4336,-3.15209,69.966,-11.3383,3.25785,57.8545,132.107,4.07426,-27.2315,0.0469275,25,423,4
61.7017,0.194608,57.3964,-0.653604,-0.214561,50.3966,113.805,0.835387,-3.19607,0.0977821,25,424,4
51.507,0.416839,47.941,-0.0425397,-0.460342,42.0643,94.9847,0.572814,-2.02875,0.0977821,25,425,4
59.8411,-2.99509,61.7209,-10.5168,3.30799,47.6798,116.623,1.68574,-21.3048,0.0938551,25,426,4
50.3521,-2.30831,51.0005,-9.71243,2.55124,40.3024,96.798,-0.0492395,-15.8067,0.0938551,25,427,4
57.9367,0.201374,57.6432,-0.653604,-0.208225,54.1616,113.805,0.835387,-3.19607,0.0977821,25,428,4
48.3623,0.432094,48.1471,-0.0425397,-0.446054,45.2091,94.9847,0.572814,-2.02875,0.0977821,25,429,4
55.7881,-3.10502,61.9866,-10.5168,3.20503,51.7329,116.623,1.68574,-21.3048,0.0938551,25,430,4
47.0023,-2.39481,51.22,-9.71243,2.47022,43.6522,96.798,-0.0492395,-15.8067,0.0938551,25,431,4
35.9392,0.354175,33.8099,0.277264,-0.391137,29.2797,66.592,0.512917,-1.60872,0.195564,25,432,4
15.3334,0.14048,14.7899,0.329253,-0.155227,12.4201,28.741,0.381386,-1.03956,0.195564,25,433,4
35.6362,-0.979121,35.1997,-8.54212,1.08274,28.7006,67.5861,-0.797394,-10.9941,0.18771,25,434,4
15.3542,0.490473,14.5988,-6.74624,-0.540336,12.478,28.5902,0.296433,-7.8007,0.18771,25,435,4
33.7212,0.367135,33.9552,0.277264,-0.378998,31.4977,66.592,0.512917,-1.60872,0.195564,25,436,4
14.3631,0.145706,14.8535,0.329253,-0.150332,13.3905,28.741,0.381386,-1.03956,0.195564,25,437,4
33.3247,-1.01639,35.3512,-8.54212,1.04784,31.012,67.5861,-0.797394,-10.9941,0.18771,25,438,4
14.3958,0.507101,14.6616,-6.74624,-0.524763,13.4364,28.5902,0.296433,-7.8007,0.18771,25,439,4
-15.2339,-0.122335,-14.0085,0.218724,0.134744,-12.4745,0.881532,0.072422,-28.4437,0.391128,25,440,4
-55.7128,-0.160385,-52.6034,0.0316292,0.177189,-45.3509,2.40314,-0.0359925,-103.399,0.391128,25,441,4
-15.7786,1.4159,-15.8024,-3.81802,-1.56223,-12.6658,2.77468,-3.11225,-31.9249,0.37542,25,442,4
-56.6056,0.76914,-56.9808,-0.734353,-0.848315,-45.3814,6.71596,-1.17707,-108.26,0.37542,25,443,4
-14.3148,-0.126454,-14.0687,0.218724,0.130886,-13.3936,0.881532,0.072422,-28.4437,0.391128,25,444,4
-52.2614,-0.16632,-52.8296,0.0316292,0.17163,-48.8023,2.40314,-0.0359925,-103.399,0.391128,25,445,4
-14.7418,1.46628,-15.8704,-3.81802,-1.51505,-13.7027,2.77468,-3.11225,-31.9249,0.37542,25,446,4
-52.867,0.796194,-57.2259,-0.734353,-0.822975,-49.1201,6.71596,-1.17707,-108.26,0.37542,25,447,4
99.7552,-0.493914,61.6249,-2.2719,0.828275,33.8762,137.076,2.11543,-7.83161,0.048891,25,448,4
93.297,-0.167418,57.2424,-1.48176,0.28116,32.1044,127.8,1.26284,-5.14296,0.048891,25,449,4
100.354,-1.73919,66.0698,-11.887,2.88912,29.7255,143.602,6.60491,-32.014,0.0469275,25,450,4
93.1442,-2.33102,61.7371,-11.3383,3.88787,27.1438,132.107,4.07426,-27.2315,0.0469275,25,451,4
95.6537,-0.524405,63.6475,-2.2719,0.809315,37.9776,137.076,2.11543,-7.83161,0.048891,25,452,4
89.4883,-0.178118,59.1207,-1.48176,0.274507,35.9131,127.8,1.26284,-5.14296,0.048891,25,453,4
95.9585,-1.82194,68.2376,-11.887,2.83766,34.1213,143.602,6.60491,-32.014,0.0469275,25,454,4
89.0342,-2.45594,63.764,-11.3383,3.81019,31.2539,132.107,4.07426,-27.2315,0.0469275,25,455,4
83.2361,0.14901,50.8642,-0.653604,-0.248404,28.8622,113.805,0.835387,-3.19607,0.0977821,25,456,4
69.4939,0.319021,42.4849,-0.0425397,-0.532818,24.0775,94.9847,0.572814,-2.02875,0.0977821,25,457,4
82.9978,-2.29219,54.6957,-10.5168,3.82874,24.5231,116.623,1.68574,-21.3048,0.0938551,25,458,4
69.4867,-1.76623,45.1954,-9.71243,2.95255,21.1679,96.798,-0.0492395,-15.8067,0.0938551,25,459,4
79.8521,0.156882,52.533,-0.653604,-0.24351,32.2462,113.805,0.835387,-3.19607,0.0977821,25,460,4
66.6674,0.336771,43.8788,-0.0425397,-0.521781,26.904,94.9847,0.572814,-2.02875,0.0977821,25,461,4
79.355,-2.42009,56.4922,-10.5168,3.74921,28.166,116.623,1.68574,-21.3048,0.0938551,25,462,4
66.4759,-1.86687,46.6801,-9.71243,2.88996,24.1787,96.798,-0.0492395,-15.8067,0.0938551,25,463,4
48.6243,0.271063,29.962,0.277264,-0.452718,16.5947,66.592,0.512917,-1.60872,0.195564,25,464,4
20.8824,0.107498,13.1067,0.329253,-0.17965,6.87115,28.741,0.381386,-1.03956,0.195564,25,465,4
48.8426,-0.749075,31.1932,-8.54212,1.25295,15.4942,67.5861,-0.797394,-10.9941,0.18771,25,466,4
20.8314,0.375635,12.9372,-6.74624,-0.62564,7.00077,28.5902,0.296433,-7.8007,0.18771,25,467,4
46.6307,0.286142,30.9451,0.277264,-0.443341,18.5882,66.592,0.512917,-1.60872,0.195564,25,468,4
20.0102,0.113578,13.5368,0.329253,-0.175869,7.7433,28.741,0.381386,-1.03956,0.195564,25,469,4
46.765,-0.792432,32.2178,-8.54212,1.22599,17.5717,67.5861,-0.797394,-10.9941,0.18771,25,470,4
19.9701,0.394981,13.3619,-6.74624,-0.61361,7.86213,28.5902,0.296433,-7.8007,0.18771,25,471,4
-20.4897,-0.0936972,-12.4141,0.218724,0.156021,-7.21872,0.881532,0.072422,-28.4437,0.391128,25,472,4
-75.4488,-0.122735,-46.6165,0.0316292,0.205074,-25.6148,2.40314,-0.0359925,-103.399,0.391128,25,473,4
-21.7075,1.08392,-14.0039,-3.81802,-1.80844,-6.73698,2.77468,-3.11225,-31.9249,0.37542,25,474,4
-77.984,0.588863,-50.4958,-0.734353,-0.982066,-24.003,6.71596,-1.17707,-108.26,0.37542,25,475,4
-19.6636,-0.09849,-12.8215,0.218724,0.153041,-8.04484,0.881532,0.072422,-28.4437,0.391128,25,476,4
-72.3467,-0.129641,-48.1463,0.0316292,0.20078,-28.7169,2.40314,-0.0359925,-103.399,0.391128,25,477,4
-20.7755,1.14254,-14.4635,-3.81802,-1.77199,-7.6689,2.77468,-3.11225,-31.9249,0.37542,25,478,4
-74.6237,0.620341,-52.1529,-0.734353,-0.962492,-27.3633,6.71596,-1.17707,-108.26,0.37542,25,479,4
91.4297,-0.547028,65.3972,-2.2719,0.794198,42.2016,137.076,2.11543,-7.83161,0.048891,25,480,4
85.5636,-0.185449,60.7463,-1.48176,0.269609,39.8378,127.8,1.26284,-5.14296,0.048891,25,481,4
91.4284,-1.92443,70.114,-11.887,2.76918,38.6515,143.602,6.60491,-32.014,0.0469275,25,482,4
84.8036,-2.58031,65.5164,-11.3383,3.72709,35.4845,132.107,4.07426,-27.2315,0.0469275,25,483,4
87.0993,-0.576214,66.8671,-2.2719,0.773284,46.532,137.076,2.11543,-7.83161,0.048891,25,484,4
81.5424,-0.19569,62.1114,-1.48176,0.26227,43.8591,127.8,1.26284,-5.14296,0.048891,25,485,4
86.7872,-2.00363,71.6895,-11.887,2.71242,43.2926,143.602,6.60491,-32.014,0.0469275,25,486,4
80.4641,-2.69988,66.9894,-11.3383,3.64141,39.8239,132.107,4.07426,-27.2315,0.0469275,25,487,4
76.3644,0.164938,53.9777,-0.653604,-0.238127,35.7339,113.805,0.835387,-3.19607,0.0977821,25,488,4
63.7542,0.353186,45.0855,-0.0425397,-0.510812,29.8171,94.9847,0.572814,-2.02875,0.0977821,25,489,4
75.6084,-2.53769,58.0441,-10.5168,3.67063,31.9125,116.623,1.68574,-21.3048,0.0938551,25,490,4
63.3808,-1.95555,47.9622,-9.71243,2.83071,27.2737,96.798,-0.0492395,-15.8067,0.0938551,25,491,4
72.7915,0.172472,55.1905,-0.653604,-0.232728,39.3068,113.805,0.835387,-3.19607,0.0977821,25,492,4
60.7699,0.370176,46.0985,-0.0425397,-0.498638,32.8014,94.9847,0.572814,-2.02875,0.0977821,25,493,4
71.7623,-2.66012,59.3496,-10.5168,3.5829,35.7586,116.623,1.68574,-21.3048,0.0938551,25,494,4
60.202,-2.05189,49.0412,-9.71243,2.76167,30.4526,96.798,-0.0492395,-15.8067,0.0938551,25,495,4
44.5764,0.300091,31.796,0.277264,-0.43402,20.6425,66.592,0.512917,-1.60872,0.195564,25,496,4
19.1117,0.119017,13.9089,0.329253,-0.172235,8.64185,28.741,0.381386,-1.03956,0.195564,25,497,4
44.6284,-0.829419,33.1028,-8.54212,1.20128,19.7084,67.5861,-0.797394,-10.9941,0.18771,25,498,4
19.0836,0.415749,13.7291,-6.74624,-0.599733,8.74857,28.5902,0.296433,-7.8007,0.18771,25,499,4
42.4716,0.314525,32.5105,0.277264,-0.423677,22.7473,66.592,0.512917,-1.60872,0.195564,25,500,4
18.1909,0.124838,14.2215,0.329253,-0.168064,9.56268,28.741,0.381386,-1.03956,0.195564,25,501,4
42.4349,-0.870919,33.8474,-8.54212,1.17154,21.9019,67.5861,-0.797394,-10.9941,0.18771,25,502,4
18.1742,0.434267,14.0378,-6.74624,-0.586463,9.65801,28.5902,0.296433,-7.8007,0.18771,25,503,4
-18.8126,-0.103701,-13.174,0.218724,0.149559,-8.89586,0.881532,0.072422,-28.4437,0.391128,25,504,4
-69.151,-0.135885,-49.4701,0.0316292,0.196608,-31.9127,2.40314,-0.0359925,-103.399,0.391128,25,505,4
-19.8155,1.19988,-14.8611,-3.81802,-1.73368,-8.6289,2.77468,-3.11225,-31.9249,0.37542,25,506,4
-71.1621,0.651832,-53.5867,-0.734353,-0.94145,-30.825,6.71596,-1.17707,-108.26,0.37542,25,507,4
-17.9403,-0.108288,-13.4701,0.218724,0.146272,-9.76809,0.881532,0.072422,-28.4437,0.391128,25,508,4
-65.8757,-0.142495,-50.5819,0.0316292,0.191871,-35.1879,2.40314,-0.0359925,-103.399,0.391128,25,509,4
-18.8316,1.25599,-15.1951,-3.81802,-1.69347,-9.61282,2.77468,-3.11225,-31.9249,0.37542,25,510,4
-67.6143,0.681963,-54.7911,-0.734353,-0.919859,-34.3728,6.71596,-1.17707,-108.26,0.37542,25,511,4
114.582,-0.381577,50.9997,-2.2719,0.885658,19.0488,137.076,2.11543,-7.83161,0.048891,25,512,4
107.07,-0.129287,47.373,-1.48176,0.300607,18.3315,127.8,1.26284,-5.14296,0.048891,25,513,4
116.251,-1.34721,54.6784,-11.887,3.09141,13.8287,143.602,6.60491,-32.014,0.0469275,25,514,4
107.999,-1.80361,51.0924,-11.3383,4.15887,12.2895,132.107,4.07426,-27.2315,0.0469275,25,515,4
111.144,-0.414282,54.015,-2.2719,0.870839,22.4871,137.076,2.11543,-7.83161,0.048891,25,516,4
103.877,-0.140764,50.173,-1.48176,0.295407,21.5243,127.8,1.26284,-5.14296,0.048891,25,517,4
112.566,-1.43597,57.9101,-11.887,3.05119,17.5137,143.602,6.60491,-32.014,0.0469275,25,518,4
104.553,-1.9376,54.114,-11.3383,4.09816,15.735,132.107,4.07426,-27.2315,0.0469275,25,519,4
95.4744,0.115312,42.0946,-0.653604,-0.265729,16.6239,113.805,0.835387,-3.19607,0.0977821,25,520,4
79.716,0.246745,35.16,-0.0425397,-0.5699,13.8553,94.9847,0.572814,-2.02875,0.0977821,25,521,4
96.1579,-1.77282,45.2649,-10.5168,4.09518,11.3631,116.623,1.68574,-21.3048,0.0938551,25,522,4
80.3609,-1.36573,37.4025,-9.71243,3.15783,10.2937,96.798,-0.0492395,-15.8067,0.0938551,25,523,4
92.6376,0.123755,44.5824,-0.653604,-0.261904,19.4607,113.805,0.835387,-3.19607,0.0977821,25,524,4
77.3466,0.265783,37.2379,-0.0425397,-0.561274,16.2247,94.9847,0.572814,-2.02875,0.0977821,25,525,4
93.1041,-1.91001,47.9429,-10.5168,4.03302,14.4168,116.623,1.68574,-21.3048,0.0938551,25,526,4
77.837,-1.47369,39.6159,-9.71243,3.10891,12.8176,96.798,-0.0492395,-15.8067,0.0938551,25,527,4
55.8333,0.209652,24.7961,0.277264,-0.484225,9.38562,66.592,0.512917,-1.60872,0.195564,25,528,4
24.0359,0.083129,10.8469,0.329253,-0.192145,3.71761,28.741,0.381386,-1.03956,0.195564,25,529,4
56.3478,-0.579124,25.8147,-8.54212,1.34001,7.98895,67.5861,-0.797394,-10.9941,0.18771,25,530,4
23.9442,0.290759,10.7065,-6.74624,-0.669318,3.88802,28.5902,0.296433,-7.8007,0.18771,25,531,4
54.1621,0.225827,26.2617,0.277264,-0.476897,11.0568,66.592,0.512917,-1.60872,0.195564,25,532,4
23.3048,0.0896513,11.488,0.329253,-0.189189,4.44873,28.741,0.381386,-1.03956,0.195564,25,533,4
54.6062,-0.625629,27.3421,-8.54212,1.31894,9.73054,67.5861,-0.797394,-10.9941,0.18771,25,534,4
23.2221,0.31151,11.3398,-6.74624,-0.659916,4.61009,28.5902,0.296433,-7.8007,0.18771,25,535,4
-23.4766,-0.0725308,-10.2737,0.218724,0.166916,-4.23181,0.881532,0.072422,-28.4437,0.391128,25,536,4
-86.665,-0.0949174,-38.5791,0.0316292,0.21934,-14.3986,2.40314,-0.0359925,-103.399,0.391128,25,537,4
-25.0769,0.838597,-11.5894,-3.81802,-1.93445,-3.36756,2.77468,-3.11225,-31.9249,0.37542,25,538,4
-90.1336,0.45564,-41.7895,-0.734353,-1.05053,-11.8534,6.71596,-1.17707,-108.26,0.37542,25,539,4
-22.7841,-0.0776715,-10.8811,0.218724,0.164587,-4.92433,0.881532,0.072422,-28.4437,0.391128,25,540,4
-84.0646,-0.102325,-40.8597,0.0316292,0.215983,-16.9991,2.40314,-0.0359925,-103.399,0.391128,25,541,4
-24.2957,0.901473,-12.2745,-3.81802,-1.90596,-4.14877,2.77468,-3.11225,-31.9249,0.37542,25,542,4
-87.3167,0.489404,-44.2599,-0.734353,-1.03523,-14.6703,6.71596,-1.17707,-108.26,0.37542,25,543,4
107.517,-0.438685,56.7982,-2.2719,0.858805,26.1143,137.076,2.11543,-7.83161,0.048891,25,544,4
100.507,-0.148671,52.7591,-1.48176,0.291508,24.8945,127.8,1.26284,-5.14296,0.048891,25,545,4
108.676,-1.54651,60.8951,-11.887,2.99668,21.4038,143.602,6.60491,-32.014,0.0469275,25,546,4
100.92,-2.07175,56.9016,-11.3383,4.03201,19.3678,132.107,4.07426,-27.2315,0.0469275,25,547,4
103.715,-0.47035,59.3389,-2.2719,0.841879,29.9167,137.076,2.11543,-7.83161,0.048891,25,548,4
96.976,-0.159783,55.1184,-1.48176,0.285569,28.4255,127.8,1.26284,-5.14296,0.048891,25,549,4
104.601,-1.63245,63.6181,-11.887,2.95074,25.4791,143.602,6.60491,-32.014,0.0469275,25,550,4
97.1099,-2.20149,59.4476,-11.3383,3.96266,23.1782,132.107,4.07426,-27.2315,0.0469275,25,551,4
89.6426,0.132445,46.8805,-0.653604,-0.257618,22.4557,113.805,0.835387,-3.19607,0.0977821,25,552,4
74.845,0.28349,39.1575,-0.0425397,-0.552542,18.7264,94.9847,0.572814,-2.02875,0.0977821,25,553,4
89.8869,-2.03687,50.4116,-10.5168,3.97046,17.634,116.623,1.68574,-21.3048,0.0938551,25,554,4
75.1791,-1.56934,41.6553,-9.71243,3.06174,15.4754,96.798,-0.0492395,-15.8067,0.0938551,25,555,4
86.5054,0.140619,48.9767,-0.653604,-0.253249,25.5929,113.805,0.835387,-3.19607,0.0977821,25,556,4
72.2246,0.301923,40.9083,-0.0425397,-0.54269,21.3467,94.9847,0.572814,-2.02875,0.0977821,25,557,4
86.5097,-2.1697,52.6681,-10.5168,3.89946,21.0112,116.623,1.68574,-21.3048,0.0938551,25,558,4
72.3879,-1.67386,43.5203,-9.71243,3.00587,18.2666,96.798,-0.0492395,-15.8067,0.0938551,25,559,4
52.3981,0.240873,27.6153,0.277264,-0.469477,12.8209,66.592,0.512917,-1.60872,0.195564,25,560,4
22.5332,0.0955178,12.0801,0.329253,-0.186296,5.22033,28.741,0.381386,-1.03956,0.195564,25,561,4
52.7715,-0.665525,28.7499,-8.54212,1.29926,11.5653,67.5861,-0.797394,-10.9941,0.18771,25,562,4
22.4609,0.333911,11.9239,-6.74624,-0.648869,5.37129,28.5902,0.296433,-7.8007,0.18771,25,563,4
50.5499,0.256534,28.8502,0.277264,-0.461106,14.669,66.592,0.512917,-1.60872,0.195564,25,564,4
21.7247,0.101833,12.6204,0.329253,-0.182921,6.02887,28.741,0.381386,-1.03956,0.195564,25,565,4
50.8454,-0.710552,30.0369,-8.54212,1.2752,13.4914,67.5861,-0.797394,-10.9941,0.18771,25,566,4
21.6624,0.354003,12.4574,-6.74624,-0.638129,6.16984,28.5902,0.296433,-7.8007,0.18771,25,567,4
-22.0533,-0.0832924,-11.4418,0.218724,0.161815,-5.65512,0.881532,0.072422,-28.4437,0.391128,25,568,4
-81.3203,-0.10906,-42.9654,0.0316292,0.212662,-19.7433,2.40314,-0.0359925,-103.399,0.391128,25,569,4
-23.4713,0.963321,-12.9071,-3.81802,-1.87546,-4.97314,2.77468,-3.11225,-31.9249,0.37542,25,570,4
-84.3441,0.523372,-46.5408,-0.734353,-1.01848,-17.6429,6.71596,-1.17707,-108.26,0.37542,25,571,4
-21.2874,-0.0882697,-11.9536,0.218724,0.159155,-6.421,0.881532,0.072422,-28.4437,0.391128,25,572,4
-78.4444,-0.116232,-44.887,0.0316292,0.208829,-22.6192,2.40314,-0.0359925,-103.399,0.391128,25,573,4
-22.6073,1.0242,-13.4844,-3.81802,-1.84292,-5.8371,2.77468,-3.11225,-31.9249,0.37542,25,574,4
-81.2289,0.556063,-48.6223,-0.734353,-1.001,-20.7581,6.71596,-1.17707,-108.26,0.37542,25,575,4
126.155,-0.262711,36.899,-2.2719,0.927886,7.47676,137.076,2.11543,-7.83161,0.048891,25,576,4
117.819,-0.0889441,34.2752,-1.48176,0.314911,7.5823,127.8,1.26284,-5.14296,0.048891,25,577,4
128.658,-0.932174,39.5609,-11.887,3.24081,1.42185,143.602,6.60491,-32.014,0.0469275,25,578,4
119.592,-1.24534,36.9658,-11.3383,4.35871,0.696456,132.107,4.07426,-27.2315,0.0469275,25,579,4
123.614,-0.29707,40.7014,-2.2719,0.917464,10.0174,137.076,2.11543,-7.83161,0.048891,25,580,4
115.46,-0.101001,37.8062,-1.48176,0.311254,9.9416,127.8,1.26284,-5.14296,0.048891,25,581,4
125.935,-1.02542,43.6362,-11.887,3.21252,4.14486,143.602,6.60491,-32.014,0.0469275,25,582,4
117.046,-1.38611,40.7762,-11.3383,4.31601,3.24244,132.107,4.07426,-27.2315,0.0469275,25,583,4
105.026,0.079641,30.4562,-0.653604,-0.278507,7.07242,113.805,0.835387,-3.19607,0.0977821,25,584,4
87.694,0.170247,25.4389,-0.0425397,-0.597232,5.87733,94.9847,0.572814,-2.02875,0.0977821,25,585,4
106.429,-1.22313,32.7492,-10.5168,4.29154,1.09232,116.623,1.68574,-21.3048,0.0938551,25,586,4
88.8476,-0.941872,27.0607,-9.71243,3.30907,1.80693,96.798,-0.0492395,-15.8067,0.0938551,25,587,4
102.93,0.0885111,33.5935,-0.653604,-0.275816,9.16866,113.805,0.835387,-3.19607,0.0977821,25,588,4
85.9431,0.190249,28.0593,-0.0425397,-0.591164,7.6282,94.9847,0.572814,-2.02875,0.0977821,25,589,4
104.172,-1.36726,36.1264,-10.5168,4.24782,3.34888,116.623,1.68574,-21.3048,0.0938551,25,590,4
86.9826,-1.05529,29.8519,-9.71243,3.27467,3.67197,96.798,-0.0492395,-15.8067,0.0938551,25,591,4
61.4597,0.144654,17.9405,0.277264,-0.507448,3.75925,66.592,0.512917,-1.60872,0.195564,25,592,4
26.4971,0.0573379,7.84789,0.329253,-0.201351,1.2564,28.741,0.381386,-1.03956,0.195564,25,593,4
62.2053,-0.399263,18.677,-8.54212,1.40414,2.13149,67.5861,-0.797394,-10.9941,0.18771,25,594,4
26.3735,0.200908,7.74626,-6.74624,-0.701544,1.45866,28.5902,0.296433,-7.8007,0.18771,25,595,4
60.2248,0.161647,19.7886,0.277264,-0.502293,4.99414,66.592,0.512917,-1.60872,0.195564,25,596,4
25.9569,0.0641901,8.65644,0.329253,-0.199273,1.79665,28.741,0.381386,-1.03956,0.195564,25,597,4
60.9183,-0.448121,20.6031,-8.54212,1.38931,3.41844,67.5861,-0.797394,-10.9941,0.18771,25,598,4
25.84,0.222708,8.5448,-6.74624,-0.69493,1.99223,28.5902,0.296433,-7.8007,0.18771,25,599,4
-25.8078,-0.0501233,-7.43322,0.218724,0.174956,-1.90064,0.881532,0.072422,-28.4437,0.391128,25,600,4
-95.4189,-0.0654757,-27.9126,0.0316292,0.229852,-5.64481,2.40314,-0.0359925,-103.399,0.391128,25,601,4
-27.7066,0.578926,-8.38512,-3.81802,-2.02736,-0.73786,2.77468,-3.11225,-31.9249,0.37542,25,602,4
-99.6158,0.31462,-30.2354,-0.734353,-1.10101,-2.37117,6.71596,-1.17707,-108.26,0.37542,25,603,4
-25.296,-0.0555241,-8.19909,0.218724,0.173317,-2.41238,0.881532,0.072422,-28.4437,0.391128,25,604,4
-93.4972,-0.0732581,-30.7885,0.0316292,0.227492,-7.56642,2.40314,-0.0359925,-103.399,0.391128,25,605,4
-27.1293,0.644982,-9.24908,-3.81802,-2.00732,-1.31514,2.77468,-3.11225,-31.9249,0.37542,25,606,4
-97.5343,0.350092,-33.3506,-0.734353,-1.09025,-4.45269,6.71596,-1.17707,-108.26,0.37542,25,607,4
120.831,-0.322835,44.3286,-2.2719,0.908718,12.8007,137.076,2.11543,-7.83161,0.048891,25,608,4
112.874,-0.10935,41.1764,-1.48176,0.308419,12.5277,127.8,1.26284,-5.14296,0.048891,25,609,4
122.95,-1.14214,47.5263,-11.887,3.1729,7.12985,143.602,6.60491,-32.014,0.0469275,25,610,4
114.258,-1.52774,44.4091,-11.3383,4.26793,6.03005,132.107,4.07426,-27.2315,0.0469275,25,611,4
117.815,-0.356439,47.7668,-2.2719,0.89607,15.8159,137.076,2.11543,-7.83161,0.048891,25,612,4
110.074,-0.121142,44.3692,-1.48176,0.303981,15.3277,127.8,1.26284,-5.14296,0.048891,25,613,4
119.718,-1.23334,51.2112,-11.887,3.13858,10.3615,143.602,6.60491,-32.014,0.0469275,25,614,4
111.236,-1.66542,47.8545,-11.3383,4.21611,9.0516,132.107,4.07426,-27.2315,0.0469275,25,615,4
100.632,0.0976857,36.5884,-0.653604,-0.272702,11.4668,113.805,0.835387,-3.19607,0.0977821,25,616,4
84.0236,0.208944,30.5609,-0.0425397,-0.584818,9.54775,94.9847,0.572814,-2.02875,0.0977821,25,617,4
101.703,-1.50119,39.3436,-10.5168,4.20236,5.81753,116.623,1.68574,-21.3048,0.0938551,25,618,4
84.9432,-1.15628,32.5097,-9.71243,3.24039,5.71138,96.798,-0.0492395,-15.8067,0.0938551,25,619,4
98.1437,0.106361,39.4252,-0.653604,-0.269437,13.9546,113.805,0.835387,-3.19607,0.0977821,25,620,4
81.9457,0.228505,32.9303,-0.0425397,-0.577456,11.6257,94.9847,0.572814,-2.02875,0.0977821,25,621,4
99.0253,-1.64215,42.3974,-10.5168,4.1493,8.49561,116.623,1.68574,-21.3048,0.0938551,25,622,4
82.7297,-1.2672,35.0336,-9.71243,3.19864,7.92479,96.798,-0.0492395,-15.8067,0.0938551,25,623,4
58.8712,0.177533,21.5527,0.277264,-0.4969,6.34776,66.592,0.512917,-1.60872,0.195564,25,624,4
25.3648,0.0703841,9.42804,0.329253,-0.19717,2.38872,28.741,0.381386,-1.03956,0.195564,25,625,4
59.5105,-0.490243,22.4378,-8.54212,1.37502,4.8263,67.5861,-0.797394,-10.9941,0.18771,25,626,4
25.2559,0.24636,9.30601,-6.74624,-0.686902,2.57633,28.5902,0.296433,-7.8007,0.18771,25,627,4
57.4056,0.194153,23.2238,0.277264,-0.490645,7.81333,66.592,0.512917,-1.60872,0.195564,25,628,4
24.7236,0.0770857,10.1592,0.329253,-0.194648,3.02989,28.741,0.381386,-1.03956,0.195564,25,629,4
57.9831,-0.538027,24.1794,-8.54212,1.35703,6.35364,67.5861,-0.797394,-10.9941,0.18771,25,630,4
24.6226,0.267682,10.0281,-6.74624,-0.678877,3.20957,28.5902,0.296433,-7.8007,0.18771,25,631,4
-24.7353,-0.0614586,-8.92988,0.218724,0.171303,-2.97313,0.881532,0.072422,-28.4437,0.391128,25,632,4
-91.3915,-0.0803686,-33.5328,0.0316292,0.225078,-9.67215,2.40314,-0.0359925,-103.399,0.391128,25,633,4
-26.4967,0.710282,-10.0734,-3.81802,-1.98516,-1.9477,2.77468,-3.11225,-31.9249,0.37542,25,634,4
-95.2534,0.385956,-36.3232,-0.734353,-1.07808,-6.73365,6.71596,-1.17707,-108.26,0.37542,25,635,4
-24.128,-0.0667407,-9.62241,0.218724,0.169315,-3.58046,0.881532,0.072422,-28.4437,0.391128,25,636,4
-89.111,-0.0879799,-36.1332,0.0316292,0.222213,-11.9527,2.40314,-0.0359925,-103.399,0.391128,25,637,4
-25.8116,0.774887,-10.8547,-3.81802,-1.96084,-2.63281,2.77468,-3.11225,-31.9249,0.37542,25,638,4
-92.783,0.420649,-39.1401,-0.734353,-1.06502,-9.20398,6.71596,-1.17707,-108.26,0.37542,25,639,4
133.683,-0.13935,20.2836,-2.2719,0.954239,-0.0514794,137.076,2.11543,-7.83161,0.048891,25,640,4
124.812,-0.047079,18.8417,-1.48176,0.323826,0.589323,127.8,1.26284,-5.14296,0.048891,25,641,4
136.729,-0.501188,21.7473,-11.887,3.33476,-6.64952,143.602,6.60491,-32.014,0.0469275,25,642,4
127.133,-0.665757,20.3201,-11.3383,4.48397,-6.84538,132.107,4.07426,-27.2315,0.0469275,25,643,4
132.213,-0.174775,24.614,-2.2719,0.94839,1.41849,137.076,2.11543,-7.83161,0.048891,25,644,4
123.447,-0.0595101,22.8629,-1.48176,0.321774,1.95436,127.8,1.26284,-5.14296,0.048891,25,645,4
135.154,-0.597332,26.3885,-11.887,3.31888,-5.07406,143.602,6.60491,-32.014,0.0469275,25,646,4
125.66,-0.8109,24.6595,-11.3383,4.46001,-5.37234,132.107,4.07426,-27.2315,0.0469275,25,647,4
111.24,0.0426072,16.7424,-0.653604,-0.28652,0.85861,113.805,0.835387,-3.19607,0.0977821,25,648,4
92.8842,0.0908366,13.9843,-0.0425397,-0.614344,0.687161,94.9847,0.572814,-2.02875,0.0977821,25,649,4
113.11,-0.652507,18.0018,-10.5168,4.41448,-5.58919,116.623,1.68574,-21.3048,0.0938551,25,650,4
94.3685,-0.501893,14.8747,-9.71243,3.4037,-3.71397,96.798,-0.0492395,-15.8067,0.0938551,25,651,4
110.027,0.0517526,20.3153,-0.653604,-0.28501,2.07144,113.805,0.835387,-3.19607,0.0977821,25,652,4
91.8712,0.111459,16.9685,-0.0425397,-0.610939,1.70018,94.9847,0.572814,-2.02875,0.0977821,25,653,4
111.805,-0.801109,21.848,-10.5168,4.38994,-4.28359,116.623,1.68574,-21.3048,0.0938551,25,654,4
93.2894,-0.618827,18.0535,-9.71243,3.3844,-2.6349,96.798,-0.0492395,-15.8067,0.0938551,25,655,4
65.12,0.0771817,9.86216,0.277264,-0.521988,0.098963,66.592,0.512917,-1.60872,0.195564,25,656,4
28.0983,0.0305657,4.31409,0.329253,-0.207113,-0.344758,28.741,0.381386,-1.03956,0.195564,25,657,4
66.0158,-0.212571,10.2665,-8.54212,1.44424,-1.67899,67.5861,-0.797394,-10.9941,0.18771,25,658,4
27.9539,0.107619,4.25809,-6.74624,-0.721765,-0.121738,28.5902,0.296433,-7.8007,0.18771,25,659,4
64.4055,0.0947018,11.967,0.277264,-0.519095,0.813445,66.592,0.512917,-1.60872,0.195564,25,660,4
27.7857,0.0376307,5.23492,0.329253,-0.205946,-0.0321794,28.741,0.381386,-1.03956,0.195564,25,661,4
65.2712,-0.262945,12.46,-8.54212,1.43592,-0.934396,67.5861,-0.797394,-10.9941,0.18771,25,662,4
27.6452,0.130096,5.16752,-6.74624,-0.718054,0.186973,28.5902,0.296433,-7.8007,0.18771,25,663,4
-27.3243,-0.0268582,-4.08612,0.218724,0.180001,-0.38409,0.881532,0.072422,-28.4437,0.391128,25,664,4
-101.114,-0.0349138,-15.3439,0.0316292,0.236432,0.0500211,2.40314,-0.0359925,-103.399,0.391128,25,665,4
-29.4173,0.309349,-4.6094,-3.81802,-2.08558,0.972901,2.77468,-3.11225,-31.9249,0.37542,25,666,4
-105.785,0.168218,-16.6208,-0.734353,-1.13266,3.79755,6.71596,-1.17707,-108.26,0.37542,25,667,4
-27.0283,-0.0324266,-4.95835,0.218724,0.179082,-0.680171,0.881532,0.072422,-28.4437,0.391128,25,668,4
-100.002,-0.0429377,-18.6191,0.0316292,0.235108,-1.06178,2.40314,-0.0359925,-103.399,0.391128,25,669,4
-29.0833,0.377456,-5.59332,-3.81802,-2.07434,0.638903,2.77468,-3.11225,-31.9249,0.37542,25,670,4
-104.58,0.204791,-20.1686,-0.734353,-1.12662,2.59324,6.71596,-1.17707,-108.26,0.37542,25,671,4
130.463,-0.201462,28.838,-2.2719,0.943082,3.16813,137.076,2.11543,-7.83161,0.048891,25,672,4
121.821,-0.0681575,26.7876,-1.48176,0.320054,3.58002,127.8,1.26284,-5.14296,0.048891,25,673,4
133.277,-0.718219,30.9186,-11.887,3.29484,-3.19762,143.602,6.60491,-32.014,0.0469275,25,674,4
123.908,-0.957597,28.8901,-11.3383,4.43083,-3.61997,132.107,4.07426,-27.2315,0.0469275,25,675,4
128.441,-0.236429,32.9395,-2.2719,0.934929,5.19075,137.076,2.11543,-7.83161,0.048891,25,676,4
119.943,-0.0804277,30.5963,-1.48176,0.317193,5.45827,127.8,1.26284,-5.14296,0.048891,25,677,4
131.11,-0.813118,35.3144,-11.887,3.27271,-1.02983,143.602,6.60491,-32.014,0.0469275,25,678,4
121.881,-1.10086,33.0002,-11.3383,4.39742,-1.59312,132.107,4.07426,-27.2315,0.0469275,25,679,4
108.582,0.0612553,23.8029,-0.653604,-0.283119,3.51609,113.805,0.835387,-3.19607,0.0977821,25,680,4
90.6645,0.130822,19.8817,-0.0425397,-0.607088,2.90685,94.9847,0.572814,-2.02875,0.0977821,25,681,4
110.253,-0.93983,25.5945,-10.5168,4.36235,-2.73173,116.623,1.68574,-21.3048,0.0938551,25,682,4
92.0074,-0.723431,21.1486,-9.71243,3.36359,-1.35287,96.798,-0.0492395,-15.8067,0.0938551,25,683,4
106.913,0.0702824,27.187,-0.653604,-0.281015,5.1849,113.805,0.835387,-3.19607,0.0977821,25,684,4
89.2706,0.151177,22.7082,-0.0425397,-0.602341,4.30073,94.9847,0.572814,-2.02875,0.0977821,25,685,4
108.456,-1.08651,29.2373,-10.5168,4.32815,-0.935283,116.623,1.68574,-21.3048,0.0938551,25,686,4
90.5226,-0.838852,24.1594,-9.71243,3.33668,0.13188,96.798,-0.0492395,-15.8067,0.0938551,25,687,4
63.5546,0.111156,14.0213,0.277264,-0.515822,1.66437,66.592,0.512917,-1.60872,0.195564,25,688,4
27.4135,0.0440461,6.13347,0.329253,-0.20467,0.340011,28.741,0.381386,-1.03956,0.195564,25,689,4
64.3861,-0.306573,14.5966,-8.54212,1.42724,-0.0493768,67.5861,-0.797394,-10.9941,0.18771,25,690,4
27.278,0.154594,6.05397,-6.74624,-0.713182,0.55415,28.5902,0.296433,-7.8007,0.18771,25,691,4
62.5715,0.128449,16.0148,0.277264,-0.51179,2.64747,66.592,0.512917,-1.60872,0.195564,25,692,4
26.9834,0.0510196,7.00561,0.329253,-0.203044,0.770108,28.741,0.381386,-1.03956,0.195564,25,693,4
63.3616,-0.356296,16.6742,-8.54212,1.41565,0.975161,67.5861,-0.797394,-10.9941,0.18771,25,694,4
26.8533,0.176781,6.91532,-6.74624,-0.708008,0.978924,28.5902,0.296433,-7.8007,0.18771,25,695,4
-26.6758,-0.0385734,-5.80937,0.218724,0.177859,-1.03268,0.881532,0.072422,-28.4437,0.391128,25,696,4
-98.6782,-0.0503025,-21.8149,0.0316292,0.233643,-2.38549,2.40314,-0.0359925,-103.399,0.391128,25,697,4
-28.6857,0.445091,-6.55332,-3.81802,-2.06088,0.241257,2.77468,-3.11225,-31.9249,0.37542,25,698,4
-103.146,0.241937,-23.6302,-0.734353,-1.11923,1.15937,6.71596,-1.17707,-108.26,0.37542,25,699,4
-26.2684,-0.0440697,-6.63549,0.218724,0.176578,-1.44007,0.881532,0.072422,-28.4437,0.391128,25,700,4
-97.1484,-0.0582226,-24.917,0.0316292,0.231796,-3.91529,2.40314,-0.0359925,-103.399,0.391128,25,701,4
-28.2261,0.512316,-7.48524,-3.81802,-2.04521,-0.218311,2.77468,-3.11225,-31.9249,0.37542,25,702,4
-101.489,0.278037,-26.9905,-0.734353,-1.11081,-0.497728,6.71596,-1.17707,-108.26,0.37542,25,703,4
136.654,-0.0136046,2.28601,-2.2719,0.964264,-3.02283,137.076,2.11543,-7.83161,0.048891,25,704,4
127.572,-0.00440841,2.12403,-1.48176,0.327201,-2.17086,127.8,1.26284,-5.14296,0.048891,25,705,4
139.915,-0.0616276,2.45169,-11.887,3.37165,-9.83538,143.602,6.60491,-32.014,0.0469275,25,706,4
130.11,-0.0747855,2.28957,-11.3383,4.53251,-9.822,132.107,4.07426,-27.2315,0.0469275,25,707,4
136.355,-0.0494904,6.8493,-2.2719,0.963089,-2.72374,137.076,2.11543,-7.83161,0.048891,25,708,4
127.295,-0.017001,6.36158,-1.48176,0.326789,-1.89312,127.8,1.26284,-5.14296,0.048891,25,709,4
139.595,-0.15902,7.34248,-11.887,3.36846,-9.51482,143.602,6.60491,-32.014,0.0469275,25,710,4
129.81,-0.221815,6.86241,-11.3383,4.52769,-9.52228,132.107,4.07426,-27.2315,0.0469275,25,711,4
113.692,0.0048444,1.88752,-0.653604,-0.28963,-1.59406,113.805,0.835387,-3.19607,0.0977821,25,712,4
94.9328,0.00987149,1.5766,-0.0425397,-0.620945,-1.36147,94.9847,0.572814,-2.02875,0.0977821,25,713,4
115.747,-0.0707194,2.0276,-10.5168,4.46188,-8.22611,116.623,1.68574,-21.3048,0.0938551,25,714,4
96.5473,-0.0533268,1.67505,-9.71243,3.44009,-5.89278,96.798,-0.0492395,-15.8067,0.0938551,25,715,4
113.446,0.0141087,5.65257,-0.653604,-0.289326,-1.34729,113.805,0.835387,-3.19607,0.0977821,25,716,4
94.7267,0.0307614,4.72135,-0.0425397,-0.620261,-1.15535,94.9847,0.572814,-2.02875,0.0977821,25,717,4
115.481,-0.221253,6.08062,-10.5168,4.45695,-7.96046,116.623,1.68574,-21.3048,0.0938551,25,718,4
96.3278,-0.17178,5.02484,-9.71243,3.43622,-5.67322,96.798,-0.0492395,-15.8067,0.0938551,25,719,4
66.5647,0.00838831,1.11178,0.277264,-0.527596,-1.34578,66.592,0.512917,-1.60872,0.195564,25,720,4
28.7303,0.00327057,0.48629,0.329253,-0.209331,-0.97674,28.741,0.381386,-1.03956,0.195564,25,721,4
67.5196,-0.0222416,1.15633,-8.54212,1.45963,-3.18284,67.5861,-0.797394,-10.9941,0.18771,25,722,4
28.5777,0.0124889,0.47974,-6.74624,-0.729638,-0.745485,28.5902,0.296433,-7.8007,0.18771,25,723,4
66.4193,0.0261361,3.32978,0.277264,-0.527015,-1.20041,66.592,0.512917,-1.60872,0.195564,25,724,4
28.6667,0.0104273,1.45664,0.329253,-0.209096,-0.91314,28.741,0.381386,-1.03956,0.195564,25,725,4
67.3681,-0.0732702,3.46782,-8.54212,1.45796,-3.03133,67.5861,-0.797394,-10.9941,0.18771,25,726,4
28.5149,0.0352584,1.43808,-6.74624,-0.728892,-0.682672,28.5902,0.296433,-7.8007,0.18771,25,727,4
-27.9229,-0.00313358,-0.460569,0.218724,0.181967,0.214493,0.881532,0.072422,-28.4437,0.391128,25,728,4
-103.361,-0.00375451,-1.72952,0.0316292,0.238967,2.29778,2.40314,-0.0359925,-103.399,0.391128,25,729,4
-30.0926,0.0344797,-0.519549,-3.81802,-2.10812,1.64814,2.77468,-3.11225,-31.9249,0.37542,25,730,4
-108.219,0.0189369,-1.87345,-0.734353,-1.14493,6.23236,6.71596,-1.17707,-108.26,0.37542,25,731,4
-27.8627,-0.00877434,-1.37971,0.218724,0.181782,0.15425,0.881532,0.072422,-28.4437,0.391128,25,732,4
-103.135,-0.0118827,-5.18092,0.0316292,0.238701,2.07156,2.40314,-0.0359925,-103.399,0.391128,25,733,4
-30.0246,0.103472,-1.55639,-3.81802,-2.10586,1.58018,2.77468,-3.11225,-31.9249,0.37542,25,734,4
-107.974,0.0559854,-5.61206,-0.734353,-1.14371,5.98732,6.71596,-1.17707,-108.26,0.37542,25,735,4
135.758,-0.0766413,11.3822,-2.2719,0.96131,-2.12697,137.076,2.11543,-7.83161,0.048891,25,736,4
126.74,-0.0257989,10.5733,-1.48176,0.326212,-1.33863,127.8,1.26284,-5.14296,0.048891,25,737,4
138.955,-0.282012,12.2039,-11.887,3.3604,-8.8748,143.602,6.60491,-32.014,0.0469275,25,738,4
129.213,-0.371066,11.4024,-11.3383,4.51791,-8.92458,132.107,4.07426,-27.2315,0.0469275,25,739,4
134.866,-0.112374,15.8674,-2.2719,0.95779,-1.23481,137.076,2.11543,-7.83161,0.048891,25,740,4
125.912,-0.0383376,14.7383,-1.48176,0.324977,-0.510155,127.8,1.26284,-5.14296,0.048891,25,741,4
137.998,-0.378988,17.011,-11.887,3.35084,-7.91861,143.602,6.60491,-32.014,0.0469275,25,742,4
128.319,-0.517465,15.897,-11.3383,4.50349,-8.03055,132.107,4.07426,-27.2315,0.0469275,25,743,4
112.953,0.0237767,9.39532,-0.653604,-0.288693,-0.854544,113.805,0.835387,-3.19607,0.0977821,25,744,4
94.3151,0.0504621,7.84758,-0.0425397,-0.61897,-0.743774,94.9847,0.572814,-2.02875,0.0977821,25,745,4
114.952,-0.362389,10.1011,-10.5168,4.4477,-7.43115,116.623,1.68574,-21.3048,0.0938551,25,746,4
95.8905,-0.278206,8.34628,-9.71243,3.42924,-5.23595,96.798,-0.0492395,-15.8067,0.0938551,25,747,4
112.217,0.0330013,13.096,-0.653604,-0.287784,-0.118442,113.805,0.835387,-3.19607,0.0977821,25,748,4
93.7003,0.0712625,10.9385,-0.0425397,-0.616921,-0.128948,94.9847,0.572814,-2.02875,0.0977821,25,749,4
114.16,-0.512278,14.0848,-10.5168,4.43294,-6.63875,116.623,1.68574,-21.3048,0.0938551,25,750,4
95.2356,-0.396152,11.6388,-9.71243,3.41762,-4.58103,96.798,-0.0492395,-15.8067,0.0938551,25,751,4
66.1291,0.0428768,5.53432,0.277264,-0.525918,-0.910176,66.592,0.512917,-1.60872,0.195564,25,752,4
28.5397,0.0169544,2.4209,0.329253,-0.208669,-0.786193,28.741,0.381386,-1.03956,0.195564,25,753,4
67.0662,-0.117658,5.7607,-8.54212,1.45505,-2.72947,67.5861,-0.797394,-10.9941,0.18771,25,754,4
28.3896,0.0601828,2.38936,-6.74624,-0.727259,-0.557435,28.5902,0.296433,-7.8007,0.18771,25,755,4
65.6955,0.0605486,7.71437,0.277264,-0.524177,-0.476537,66.592,0.512917,-1.60872,0.195564,25,756,4
28.35,0.0240805,3.37465,0.329253,-0.207967,-0.59648,28.741,0.381386,-1.03956,0.195564,25,757,4
66.6143,-0.168468,8.03264,-8.54212,1.45004,-2.27755,67.5861,-0.797394,-10.9941,0.18771,25,758,4
28.2023,0.0828548,3.3313,-6.74624,-0.725026,-0.37007,28.5902,0.296433,-7.8007,0.18771,25,759,4
-27.7424,-0.0150281,-2.29296,0.218724,0.181372,0.0340172,0.881532,0.072422,-28.4437,0.391128,25,760,4
-102.684,-0.0193756,-8.61037,0.0316292,0.23821,1.62007,2.40314,-0.0359925,-103.399,0.391128,25,761,4
-29.889,0.172283,-2.5866,-3.81802,-2.10135,1.44455,2.77468,-3.11225,-31.9249,0.37542,25,762,4
-107.485,0.0937781,-9.32689,-0.734353,-1.14124,5.49825,6.71596,-1.17707,-108.26,0.37542,25,763,4
-27.5627,-0.0206447,-3.19637,0.218724,0.180819,-0.145682,0.881532,0.072422,-28.4437,0.391128,25,764,4
-102.009,-0.027469,-12.0027,0.0316292,0.237412,0.945287,2.40314,-0.0359925,-103.399,0.391128,25,765,4
-29.6863,0.24098,-3.60571,-3.81802,-2.09458,1.24184,2.77468,-3.11225,-31.9249,0.37542,25,766,4
-106.754,0.130668,-13.0015,-0.734353,-1.1376,4.76732,6.71596,-1.17707,-108.26,0.37542,25,767,4
