Block Name,Cell ID,Cell Type,ids,object_id,stress_minprincipal,stress_rr,stress_rz,stress_tt,stress_zz
block_1,0,9,4251,1,0.275893,332.933,-0.18546,333.272,0.285293
block_1,1,9,4252,1,0.0152573,332.407,-0.215731,332.688,0.0276932
block_1,2,9,4253,1,0.305259,310.98,0.0901205,310.941,0.314953
block_1,3,9,4254,1,0.117104,310.97,0.039115,310.937,0.131082
block_1,4,9,4255,1,-0.00538351,332.258,-0.161787,332.487,0.00755442
block_1,5,9,4256,1,-0.0121791,332.185,-0.123207,332.379,0.000923836
block_1,6,9,4257,1,0.0141647,310.845,-0.0239604,310.88,0.0281737
block_1,7,9,4258,1,-0.00691903,310.761,-0.0320028,310.832,0.00714423
block_1,8,9,4259,1,0.191135,289.376,0.0331803,289.382,0.201343
block_1,9,9,4260,1,0.112051,289.375,0.0588883,289.365,0.12683
block_1,10,9,4261,1,0.10842,267.871,0.0301365,267.87,0.119416
block_1,11,9,4262,1,0.0650727,267.87,0.0565269,267.865,0.0809738
block_1,12,9,4263,1,0.03494,289.354,0.0480475,289.346,0.0500759
block_1,13,9,4264,1,-0.00751245,289.303,0.0332618,289.321,0.00764479
block_1,14,9,4265,1,0.0174766,267.859,0.0696314,267.854,0.0337705
block_1,15,9,4266,1,-0.0196463,267.835,0.0731254,267.839,-0.00325823
block_1,16,9,4267,1,-0.013463,332.132,-0.0968632,332.308,-0.000290696
block_1,17,9,4268,1,-0.0144583,332.087,-0.0773436,332.253,-0.00124903
block_1,18,9,4269,1,-0.0166244,310.7,-0.025217,310.789,-0.00252607
block_1,19,9,4270,1,-0.020616,310.649,-0.0142301,310.751,-0.00649538
block_1,20,9,4271,1,-0.0148062,332.042,-0.0621251,332.207,-0.00157597
block_1,21,9,4272,1,-0.0150449,331.996,-0.0497532,332.166,-0.00180182
block_1,22,9,4273,1,-0.0228026,310.601,-0.00206163,310.716,-0.00866687
block_1,23,9,4274,1,-0.0239824,310.554,0.0102369,310.682,-0.00983588
block_1,24,9,4275,1,-0.0244872,289.253,0.0334588,289.295,-0.00931554
block_1,25,9,4276,1,-0.0334403,289.206,0.0409999,289.268,-0.0182571
block_1,26,9,4277,1,-0.0420079,267.8,0.0774711,267.821,-0.0256002
block_1,27,9,4278,1,-0.0542624,267.762,0.0868783,267.801,-0.0378419
block_1,28,9,4279,1,-0.0381761,289.16,0.0522736,289.24,-0.0229819
block_1,29,9,4280,1,-0.0409647,289.115,0.0654044,289.212,-0.0257599
block_1,30,9,4281,1,-0.0615625,267.722,0.0997968,267.779,-0.0451296
block_1,31,9,4282,1,-0.0659927,267.68,0.115006,267.755,-0.0495455
block_1,32,9,4283,1,0.0354325,246.398,0.0265186,246.399,0.0473543
block_1,33,9,4284,1,0.0085252,246.397,0.0564475,246.395,0.0257625
block_1,34,9,4285,1,-0.0343444,224.947,0.0259999,224.948,-0.0213086
block_1,35,9,4286,1,-0.0533069,224.946,0.0576188,224.944,-0.0344616
block_1,36,9,4287,1,-0.0217822,246.391,0.0798052,246.387,-0.00410432
block_1,37,9,4288,1,-0.0499014,246.375,0.0958799,246.377,-0.0321028
block_1,38,9,4289,1,-0.0733621,224.94,0.0870528,224.939,-0.0540319
block_1,39,9,4290,1,-0.0939862,224.929,0.111481,224.931,-0.0745086
block_1,40,9,4291,1,-0.104585,203.51,0.0263716,203.511,-0.0901981
block_1,41,9,4292,1,-0.119505,203.508,0.059838,203.508,-0.0987061
block_1,42,9,4293,1,-0.177079,182.084,0.0272418,182.084,-0.161021
block_1,43,9,4294,1,-0.189993,182.082,0.062522,182.082,-0.166778
block_1,44,9,4295,1,-0.133325,203.503,0.0933708,203.503,-0.111988
block_1,45,9,4296,1,-0.148464,203.494,0.123649,203.497,-0.126954
block_1,46,9,4297,1,-0.19989,182.077,0.0992458,182.078,-0.176071
block_1,47,9,4298,1,-0.211113,182.069,0.133882,182.073,-0.187093
block_1,48,9,4299,1,-0.0707899,246.351,0.109375,246.363,-0.0529444
block_1,49,9,4300,1,-0.0846056,246.321,0.123826,246.348,-0.066736
block_1,50,9,4301,1,-0.111508,224.911,0.132855,224.92,-0.0919621
block_1,51,9,4302,1,-0.124681,224.887,0.153483,224.907,-0.105092
block_1,52,9,4303,1,-0.0934234,246.287,0.140411,246.33,-0.0755324
block_1,53,9,4304,1,-0.099177,246.25,0.158802,246.31,-0.0812626
block_1,54,9,4305,1,-0.134008,224.858,0.174714,224.892,-0.114382
block_1,55,9,4306,1,-0.140475,224.826,0.196995,224.875,-0.12081
block_1,56,9,4307,1,-0.162513,203.48,0.15129,203.488,-0.140912
block_1,57,9,4308,1,-0.174125,203.46,0.177594,203.477,-0.15246
block_1,58,9,4309,1,-0.22219,182.057,0.166446,182.065,-0.198054
block_1,59,9,4310,1,-0.231995,182.041,0.197611,182.056,-0.20777
block_1,60,9,4311,1,-0.183057,203.436,0.203647,203.464,-0.161334
block_1,61,9,4312,1,-0.189676,203.409,0.230045,203.45,-0.167894
block_1,62,9,4313,1,-0.240056,182.022,0.228116,182.045,-0.215747
block_1,63,9,4314,1,-0.246382,181.998,0.258503,182.032,-0.221987
block_1,64,9,4315,1,-0.0151693,331.947,-0.0393582,332.126,-0.00191835
block_1,65,9,4316,1,-0.0152502,331.894,-0.0303905,332.087,-0.00199444
block_1,66,9,4317,1,-0.0246978,310.504,0.0222975,310.648,-0.0105431
block_1,67,9,4318,1,-0.0251391,310.453,0.0340089,310.614,-0.010978
block_1,68,9,4319,1,-0.0152996,331.837,-0.0224863,332.048,-0.00204111
block_1,69,9,4320,1,-0.0153316,331.776,-0.0153959,332.007,-0.00207186
block_1,70,9,4321,1,-0.0254247,310.397,0.0453552,310.579,-0.0112583
block_1,71,9,4322,1,-0.025613,310.339,0.0563575,310.542,-0.0114421
block_1,72,9,4323,1,-0.0426562,289.067,0.0794619,289.183,-0.0274408
block_1,73,9,4324,1,-0.0437352,289.018,0.093956,289.153,-0.0285091
block_1,74,9,4325,1,-0.0688097,267.636,0.131623,267.73,-0.0523461
block_1,75,9,4326,1,-0.0706458,267.59,0.149098,267.704,-0.0541636
block_1,76,9,4327,1,-0.0444411,288.965,0.108627,289.122,-0.0292039
block_1,77,9,4328,1,-0.0449153,288.91,0.123336,289.089,-0.0296665
block_1,78,9,4329,1,-0.0718756,267.541,0.167085,267.676,-0.0553727
block_1,79,9,4330,1,-0.0727151,267.489,0.185369,267.646,-0.0561894
block_1,80,9,4331,1,-0.0153519,331.71,-0.00894206,331.965,-0.00209195
block_1,81,9,4332,1,-0.0153646,331.639,-0.00299551,331.922,-0.00210534
block_1,82,9,4333,1,-0.02574,310.276,0.0670486,310.504,-0.011565
block_1,83,9,4334,1,-0.0258265,310.209,0.0774638,310.464,-0.0116479
block_1,84,9,4335,1,-0.0153721,331.564,0.00254027,331.876,-0.00211424
block_1,85,9,4336,1,-0.015376,331.484,0.00773883,331.829,-0.00212014
block_1,86,9,4337,1,-0.0258863,310.138,0.0876364,310.422,-0.0117041
block_1,87,9,4338,1,-0.0259278,310.062,0.0975963,310.378,-0.0117423
block_1,88,9,4339,1,-0.0452396,288.851,0.138008,289.054,-0.0299786
block_1,89,9,4340,1,-0.0454652,288.788,0.152604,289.017,-0.0301914
block_1,90,9,4341,1,-0.0732986,267.434,0.203815,267.614,-0.0567479
block_1,91,9,4342,1,-0.0737102,267.375,0.222338,267.581,-0.0571326
block_1,92,9,4343,1,-0.0456245,288.721,0.167105,288.979,-0.0303371
block_1,93,9,4344,1,-0.0457386,288.65,0.181506,288.938,-0.030437
block_1,94,9,4345,1,-0.0740053,267.313,0.240886,267.546,-0.0573987
block_1,95,9,4346,1,-0.0742205,267.247,0.259426,267.509,-0.0575828
block_1,96,9,4347,1,-0.102979,246.211,0.178548,246.288,-0.0850372
block_1,97,9,4348,1,-0.105545,246.168,0.199239,246.265,-0.0875727
block_1,98,9,4349,1,-0.14497,224.791,0.220267,224.856,-0.125263
block_1,99,9,4350,1,-0.148112,224.753,0.244348,224.836,-0.128357
block_1,100,9,4351,1,-0.107305,246.123,0.220575,246.24,-0.089298
block_1,101,9,4352,1,-0.108532,246.075,0.242338,246.213,-0.0904859
block_1,102,9,4353,1,-0.15033,224.712,0.269045,224.814,-0.13052
block_1,103,9,4354,1,-0.15191,224.669,0.294193,224.79,-0.132041
block_1,104,9,4355,1,-0.194502,203.378,0.257002,203.433,-0.172655
block_1,105,9,4356,1,-0.198007,203.344,0.284522,203.415,-0.176088
block_1,106,9,4357,1,-0.251214,181.971,0.289071,182.018,-0.226727
block_1,107,9,4358,1,-0.254856,181.942,0.319943,182.002,-0.230267
block_1,108,9,4359,1,-0.200554,203.308,0.312533,203.396,-0.178556
block_1,109,9,4360,1,-0.202415,203.268,0.340939,203.374,-0.180329
block_1,110,9,4361,1,-0.257585,181.909,0.351139,181.985,-0.232884
block_1,111,9,4362,1,-0.25963,181.874,0.382631,181.966,-0.234806
block_1,112,9,4363,1,-0.109399,246.024,0.264382,246.185,-0.0913102
block_1,113,9,4364,1,-0.11002,245.97,0.286602,246.154,-0.0918851
block_1,114,9,4365,1,-0.153049,224.622,0.319663,224.764,-0.133113
block_1,115,9,4366,1,-0.153879,224.572,0.345358,224.737,-0.133871
block_1,116,9,4367,1,-0.110472,245.912,0.308931,246.122,-0.0922869
block_1,117,9,4368,1,-0.110807,245.852,0.33132,246.088,-0.0925676
block_1,118,9,4369,1,-0.154493,224.52,0.371209,224.708,-0.134407
block_1,119,9,4370,1,-0.154955,224.464,0.397164,224.677,-0.134785
block_1,120,9,4371,1,-0.203784,203.226,0.369651,203.351,-0.181602
block_1,121,9,4372,1,-0.204801,203.181,0.398594,203.327,-0.182514
block_1,122,9,4373,1,-0.261168,181.837,0.414374,181.946,-0.23621
block_1,123,9,4374,1,-0.262334,181.797,0.446322,181.924,-0.23723
block_1,124,9,4375,1,-0.205566,203.134,0.427707,203.301,-0.183166
block_1,125,9,4376,1,-0.206153,203.083,0.456946,203.273,-0.183631
block_1,126,9,4377,1,-0.26323,181.754,0.478431,181.901,-0.237969
block_1,127,9,4378,1,-0.263931,181.709,0.510667,181.877,-0.2385
block_1,128,9,4379,1,-0.252692,160.667,0.0282897,160.667,-0.234517
block_1,129,9,4380,1,-0.264822,160.665,0.0653387,160.665,-0.238546
block_1,130,9,4381,1,-0.331847,139.256,0.0293657,139.257,-0.310907
block_1,131,9,4382,1,-0.344067,139.254,0.0680643,139.255,-0.31379
block_1,132,9,4383,1,-0.272164,160.66,0.104701,160.662,-0.2452
block_1,133,9,4384,1,-0.280591,160.653,0.142757,160.657,-0.253391
block_1,134,9,4385,1,-0.349705,139.251,0.109665,139.252,-0.31863
block_1,135,9,4386,1,-0.356107,139.245,0.150483,139.248,-0.324752
block_1,136,9,4387,1,-0.414816,117.852,0.0303784,117.852,-0.390111
block_1,137,9,4388,1,-0.427923,117.85,0.0705588,117.851,-0.392198
block_1,138,9,4389,1,-0.502003,96.4524,0.0312742,96.4525,-0.471874
block_1,139,9,4390,1,-0.516958,96.451,0.0727313,96.4514,-0.473381
block_1,140,9,4391,1,-0.432413,117.847,0.114056,117.848,-0.395741
block_1,141,9,4392,1,-0.437325,117.842,0.157124,117.845,-0.400314
block_1,142,9,4393,1,-0.520697,96.4483,0.117804,96.4496,-0.47596
block_1,143,9,4394,1,-0.524498,96.4442,0.16269,96.4469,-0.479338
block_1,144,9,4395,1,-0.289269,160.643,0.179236,160.651,-0.261925
block_1,145,9,4396,1,-0.297352,160.63,0.214447,160.643,-0.26989
block_1,146,9,4397,1,-0.362888,139.236,0.190112,139.243,-0.331355
block_1,147,9,4398,1,-0.369447,139.225,0.228654,139.236,-0.33776
block_1,148,9,4399,1,-0.304351,160.613,0.248856,160.633,-0.276774
block_1,149,9,4400,1,-0.310113,160.593,0.282881,160.623,-0.282417
block_1,150,9,4401,1,-0.375361,139.211,0.266382,139.228,-0.343522
block_1,151,9,4402,1,-0.380427,139.194,0.303596,139.219,-0.348427
block_1,152,9,4403,1,-0.442608,117.835,0.199295,117.841,-0.405374
block_1,153,9,4404,1,-0.447863,117.826,0.24055,117.835,-0.410429
block_1,154,9,4405,1,-0.528594,96.4384,0.20689,96.4433,-0.483148
block_1,155,9,4406,1,-0.532747,96.4309,0.250318,96.4388,-0.487039
block_1,156,9,4407,1,-0.452753,117.814,0.281036,117.829,-0.415118
block_1,157,9,4408,1,-0.457081,117.8,0.320957,117.821,-0.419232
block_1,158,9,4409,1,-0.53671,96.4215,0.293039,96.4335,-0.490734
block_1,159,9,4410,1,-0.540315,96.4103,0.335186,96.4273,-0.494052
block_1,160,9,4411,1,-0.59445,75.0567,0.0320196,75.0568,-0.555831
block_1,161,9,4412,1,-0.612769,75.0556,0.0745229,75.056,-0.556895
block_1,162,9,4413,1,-0.695345,53.6639,0.0325935,53.664,-0.641549
block_1,163,9,4414,1,-0.720144,53.6632,0.075895,53.6634,-0.642257
block_1,164,9,4415,1,-0.616095,75.0535,0.120857,75.0545,-0.558726
block_1,165,9,4416,1,-0.619071,75.0502,0.167169,75.0524,-0.56115
block_1,166,9,4417,1,-0.72346,53.6616,0.123178,53.6624,-0.64348
block_1,167,9,4418,1,-0.725871,53.6593,0.170547,53.6609,-0.645111
block_1,168,9,4419,1,-0.817272,32.2733,0.032983,32.2734,-0.728552
block_1,169,9,4420,1,-0.857718,32.2728,0.076823,32.273,-0.728957
block_1,170,9,4421,1,-1.07035,10.8839,0.0331802,10.884,-0.816336
block_1,171,9,4422,1,-1.19604,10.8838,0.0772923,10.8838,-0.816468
block_1,172,9,4423,1,-0.861909,32.2719,0.12474,32.2724,-0.72966
block_1,173,9,4424,1,-0.864153,32.2705,0.17281,32.2715,-0.7306
block_1,174,9,4425,1,-1.20735,10.8835,0.125528,10.8836,-0.816698
block_1,175,9,4426,1,-1.21156,10.883,0.173948,10.8833,-0.817005
block_1,176,9,4427,1,-0.622224,75.0458,0.212945,75.0497,-0.563922
block_1,177,9,4428,1,-0.625455,75.04,0.25806,75.0462,-0.5668
block_1,178,9,4429,1,-0.7283,53.6561,0.217482,53.659,-0.646995
block_1,179,9,4430,1,-0.730789,53.652,0.263837,53.6565,-0.648973
block_1,180,9,4431,1,-0.628602,75.0328,0.302529,75.0421,-0.569581
block_1,181,9,4432,1,-0.631538,75.0241,0.346434,75.0373,-0.572123
block_1,182,9,4433,1,-0.733257,53.6469,0.309594,53.6536,-0.650908
block_1,183,9,4434,1,-0.735626,53.6408,0.354802,53.6502,-0.652699
block_1,184,9,4435,1,-0.86616,32.2686,0.220509,32.2703,-0.731694
block_1,185,9,4436,1,-0.868174,32.2661,0.267679,32.2689,-0.73285
block_1,186,9,4437,1,-1.21445,10.8824,0.222027,10.8829,-0.817364
block_1,187,9,4438,1,-1.21709,10.8815,0.269603,10.8824,-0.817744
block_1,188,9,4439,1,-0.870214,32.2631,0.314284,32.2671,-0.733991
block_1,189,9,4440,1,-0.872253,32.2594,0.360356,32.2651,-0.735055
block_1,190,9,4441,1,-1.21976,10.8805,0.316631,10.8819,-0.818121
block_1,191,9,4442,1,-1.22257,10.8793,0.363133,10.8812,-0.818474
block_1,192,9,4443,1,-0.314703,160.57,0.316816,160.61,-0.286879
block_1,193,9,4444,1,-0.318286,160.545,0.350829,160.597,-0.290322
block_1,194,9,4445,1,-0.384612,139.175,0.340543,139.209,-0.352438
block_1,195,9,4446,1,-0.387987,139.153,0.377398,139.197,-0.355625
block_1,196,9,4447,1,-0.321053,160.516,0.385,160.582,-0.292936
block_1,197,9,4448,1,-0.323181,160.486,0.419354,160.565,-0.294896
block_1,198,9,4449,1,-0.39067,139.129,0.414269,139.184,-0.358102
block_1,199,9,4450,1,-0.39279,139.102,0.451211,139.17,-0.359997
block_1,200,9,4451,1,-0.460772,117.784,0.360508,117.812,-0.422691
block_1,201,9,4452,1,-0.463839,117.766,0.399847,117.802,-0.425506
block_1,202,9,4453,1,-0.543478,96.3973,0.376907,96.4202,-0.496904
block_1,203,9,4454,1,-0.546186,96.3825,0.418337,96.4123,-0.499271
block_1,204,9,4455,1,-0.466349,117.745,0.439087,117.792,-0.42774
block_1,205,9,4456,1,-0.468387,117.723,0.478305,117.78,-0.42948
block_1,206,9,4457,1,-0.548468,96.3661,0.459585,96.4035,-0.501184
block_1,207,9,4458,1,-0.550381,96.3481,0.500734,96.3939,-0.502695
block_1,208,9,4459,1,-0.32482,160.453,0.453885,160.548,-0.296353
block_1,209,9,4460,1,-0.326091,160.417,0.488574,160.529,-0.297427
block_1,210,9,4461,1,-0.394464,139.074,0.488251,139.155,-0.361428
block_1,211,9,4462,1,-0.395796,139.043,0.525395,139.138,-0.362496
block_1,212,9,4463,1,-0.32709,160.38,0.523399,160.508,-0.298213
block_1,213,9,4464,1,-0.327889,160.34,0.558337,160.487,-0.298784
block_1,214,9,4465,1,-0.39687,139.011,0.562639,139.121,-0.363287
block_1,215,9,4466,1,-0.397752,138.976,0.599974,139.102,-0.363867
block_1,216,9,4467,1,-0.470044,117.699,0.517546,117.767,-0.430812
block_1,217,9,4468,1,-0.4714,117.674,0.556836,117.753,-0.431819
block_1,218,9,4469,1,-0.551986,96.3286,0.541842,96.3835,-0.503866
block_1,219,9,4470,1,-0.553349,96.3076,0.582949,96.3723,-0.504761
block_1,220,9,4471,1,-0.472527,117.646,0.596187,117.738,-0.432571
block_1,221,9,4472,1,-0.473485,117.617,0.635602,117.723,-0.433128
block_1,222,9,4473,1,-0.554525,96.2852,0.624079,96.3602,-0.505436
block_1,223,9,4474,1,-0.555563,96.2613,0.665248,96.3474,-0.505938
block_1,224,9,4475,1,-0.63419,75.0141,0.389885,75.0318,-0.574344
block_1,225,9,4476,1,-0.636533,75.0028,0.432996,75.0257,-0.576218
block_1,226,9,4477,1,-0.737841,53.6337,0.399546,53.6463,-0.654284
block_1,227,9,4478,1,-0.739881,53.6256,0.44392,53.6419,-0.655636
block_1,228,9,4479,1,-0.638578,74.9901,0.475866,75.0189,-0.577752
block_1,229,9,4480,1,-0.640358,74.9762,0.51858,75.0115,-0.578978
block_1,230,9,4481,1,-0.741749,53.6166,0.488015,53.6371,-0.656755
block_1,231,9,4482,1,-0.743463,53.6067,0.531913,53.6318,-0.657657
block_1,232,9,4483,1,-0.874268,32.2552,0.405959,32.2627,-0.736004
block_1,233,9,4484,1,-0.876247,32.2503,0.451175,32.2601,-0.73682
block_1,234,9,4485,1,-1.22555,10.8778,0.409165,10.8804,-0.81879
block_1,235,9,4486,1,-1.22871,10.8762,0.454804,10.8795,-0.819063
block_1,236,9,4487,1,-0.878193,32.245,0.49609,32.2572,-0.737499
block_1,237,9,4488,1,-0.880115,32.239,0.540783,32.2541,-0.738051
block_1,238,9,4489,1,-1.23207,10.8744,0.500131,10.8785,-0.819291
block_1,239,9,4490,1,-1.23565,10.8724,0.545223,10.8775,-0.819477
block_1,240,9,4491,1,-0.641917,74.961,0.561203,75.0034,-0.579939
block_1,241,9,4492,1,-0.643301,74.9447,0.603782,74.9947,-0.58068
block_1,242,9,4493,1,-0.745051,53.5959,0.575683,53.626,-0.65837
block_1,243,9,4494,1,-0.746546,53.5843,0.619377,53.6198,-0.658922
block_1,244,9,4495,1,-0.644552,74.9273,0.646352,74.9854,-0.581242
block_1,245,9,4496,1,-0.64571,74.9087,0.688935,74.9754,-0.581663
block_1,246,9,4497,1,-0.747976,53.5718,0.663035,53.6132,-0.659344
block_1,247,9,4498,1,-0.74937,53.5586,0.706688,53.6061,-0.659661
block_1,248,9,4499,1,-0.882032,32.2325,0.585323,32.2506,-0.738489
block_1,249,9,4500,1,-0.883963,32.2256,0.629765,32.2469,-0.73883
block_1,250,9,4501,1,-1.23944,10.8702,0.590151,10.8763,-0.819624
block_1,251,9,4502,1,-1.24348,10.8679,0.63497,10.8751,-0.81974
block_1,252,9,4503,1,-0.885926,32.2181,0.674155,32.2429,-0.739091
block_1,253,9,4504,1,-0.887938,32.2101,0.718525,32.2386,-0.739288
block_1,254,9,4505,1,-1.24776,10.8654,0.679728,10.8737,-0.819828
block_1,255,9,4506,1,-1.25229,10.8627,0.724459,10.8723,-0.819896
block_1,256,9,4507,1,-0.0153775,331.399,0.0126573,331.779,-0.00212401
block_1,257,9,4508,1,-0.0153771,331.309,0.0173406,331.727,-0.00212651
block_1,258,9,4509,1,-0.0259569,309.982,0.10737,310.332,-0.0117681
block_1,259,9,4510,1,-0.0259776,309.897,0.116981,310.284,-0.0117855
block_1,260,9,4511,1,-0.0153755,331.214,0.0218249,331.673,-0.00212808
block_1,261,9,4512,1,-0.0153728,331.114,0.026139,331.617,-0.00212902
block_1,262,9,4513,1,-0.0259924,309.808,0.126449,310.233,-0.011797
block_1,263,9,4514,1,-0.0260032,309.715,0.135792,310.181,-0.0118045
block_1,264,9,4515,1,-0.045822,288.575,0.195807,288.896,-0.0305053
block_1,265,9,4516,1,-0.0458843,288.496,0.210012,288.851,-0.0305518
block_1,266,9,4517,1,-0.0743806,267.177,0.277938,267.47,-0.0577099
block_1,267,9,4518,1,-0.074503,267.104,0.296413,267.428,-0.0577973
block_1,268,9,4519,1,-0.0459323,288.413,0.224127,288.804,-0.0305831
block_1,269,9,4520,1,-0.0459706,288.325,0.238159,288.756,-0.030604
block_1,270,9,4521,1,-0.0745996,267.026,0.314843,267.385,-0.0578567
block_1,271,9,4522,1,-0.0746787,266.945,0.333229,267.34,-0.0578968
block_1,272,9,4523,1,-0.0153695,331.009,0.030307,331.558,-0.00212955
block_1,273,9,4524,1,-0.0153655,330.899,0.0343483,331.496,-0.0021298
block_1,274,9,4525,1,-0.0260114,309.616,0.145025,310.126,-0.0118093
block_1,275,9,4526,1,-0.0260177,309.514,0.15416,310.068,-0.0118123
block_1,276,9,4527,1,-0.0153612,330.785,0.0382794,331.432,-0.00212989
block_1,277,9,4528,1,-0.0153564,330.665,0.042114,331.365,-0.00212987
block_1,278,9,4529,1,-0.026023,309.406,0.163209,310.009,-0.011814
block_1,279,9,4530,1,-0.0260275,309.294,0.172183,309.946,-0.0118149
block_1,280,9,4531,1,-0.0460025,288.234,0.252114,288.704,-0.0306175
block_1,281,9,4532,1,-0.0460302,288.138,0.266001,288.651,-0.0306262
block_1,282,9,4533,1,-0.0747464,266.86,0.351569,267.293,-0.0579233
block_1,283,9,4534,1,-0.0748067,266.771,0.369866,267.244,-0.0579405
block_1,284,9,4535,1,-0.0460555,288.038,0.279824,288.596,-0.0306314
block_1,285,9,4536,1,-0.0460794,287.933,0.293592,288.538,-0.0306345
block_1,286,9,4537,1,-0.0748627,266.678,0.388122,267.193,-0.0579513
block_1,287,9,4538,1,-0.0749165,266.581,0.40634,267.139,-0.0579578
block_1,288,9,4539,1,-0.11106,245.787,0.353738,246.053,-0.0927632
block_1,289,9,4540,1,-0.111257,245.719,0.376164,246.015,-0.0928987
block_1,290,9,4541,1,-0.15531,224.405,0.423186,224.644,-0.135051
block_1,291,9,4542,1,-0.155591,224.343,0.449251,224.61,-0.135236
block_1,292,9,4543,1,-0.111415,245.648,0.398585,245.976,-0.0929918
block_1,293,9,4544,1,-0.111547,245.573,0.420993,245.934,-0.0930552
block_1,294,9,4545,1,-0.155821,224.278,0.475341,224.574,-0.135365
block_1,295,9,4546,1,-0.156017,224.209,0.501442,224.537,-0.135453
block_1,296,9,4547,1,-0.206612,203.03,0.486275,203.244,-0.183961
block_1,297,9,4548,1,-0.206983,202.974,0.515667,203.213,-0.184193
block_1,298,9,4549,1,-0.264491,181.661,0.543,181.851,-0.23888
block_1,299,9,4550,1,-0.264953,181.611,0.575407,181.823,-0.23915
block_1,300,9,4551,1,-0.207292,202.915,0.545104,203.181,-0.184355
block_1,301,9,4552,1,-0.207559,202.853,0.574572,203.147,-0.184467
block_1,302,9,4553,1,-0.265346,181.558,0.607871,181.794,-0.23934
block_1,303,9,4554,1,-0.265694,181.502,0.640379,181.764,-0.239473
block_1,304,9,4555,1,-0.111662,245.495,0.443382,245.891,-0.0930977
block_1,305,9,4556,1,-0.111766,245.413,0.465751,245.846,-0.0931256
block_1,306,9,4557,1,-0.156189,224.138,0.527548,224.497,-0.135513
block_1,307,9,4558,1,-0.156347,224.063,0.553651,224.456,-0.135553
block_1,308,9,4559,1,-0.111863,245.328,0.488098,245.799,-0.0931436
block_1,309,9,4560,1,-0.111958,245.238,0.510424,245.75,-0.0931547
block_1,310,9,4561,1,-0.156498,223.985,0.57975,224.413,-0.135579
block_1,311,9,4562,1,-0.156644,223.903,0.605842,224.369,-0.135596
block_1,312,9,4563,1,-0.207799,202.788,0.604061,203.111,-0.184544
block_1,313,9,4564,1,-0.208023,202.72,0.633564,203.074,-0.184596
block_1,314,9,4565,1,-0.266011,181.444,0.672919,181.732,-0.239564
block_1,315,9,4566,1,-0.266311,181.383,0.705486,181.699,-0.239626
block_1,316,9,4567,1,-0.208237,202.649,0.663076,203.035,-0.18463
block_1,317,9,4568,1,-0.208447,202.575,0.692593,202.995,-0.184651
block_1,318,9,4569,1,-0.266602,181.32,0.738072,181.665,-0.239667
block_1,319,9,4570,1,-0.26689,181.254,0.770673,181.628,-0.239694
block_1,320,9,4571,1,-0.0153513,330.54,0.0458636,331.296,-0.00212978
block_1,321,9,4572,1,-0.0153459,330.411,0.0495381,331.225,-0.00212967
block_1,322,9,4573,1,-0.0260316,309.177,0.181088,309.882,-0.0118152
block_1,323,9,4574,1,-0.0260356,309.056,0.189934,309.815,-0.0118153
block_1,324,9,4575,1,-0.0153403,330.276,0.0531458,331.151,-0.00212955
block_1,325,9,4576,1,-0.0153345,330.137,0.0566941,331.074,-0.00212942
block_1,326,9,4577,1,-0.0260394,308.93,0.198726,309.746,-0.0118152
block_1,327,9,4578,1,-0.0260433,308.799,0.207471,309.674,-0.011815
block_1,328,9,4579,1,-0.0461027,287.824,0.307309,288.478,-0.030636
block_1,329,9,4580,1,-0.046126,287.711,0.32098,288.416,-0.0306367
block_1,330,9,4581,1,-0.0749694,266.481,0.424523,267.084,-0.0579614
block_1,331,9,4582,1,-0.0750226,266.376,0.442673,267.026,-0.0579632
block_1,332,9,4583,1,-0.0461496,287.594,0.33461,288.351,-0.0306368
block_1,333,9,4584,1,-0.0461738,287.472,0.348202,288.285,-0.0306365
block_1,334,9,4585,1,-0.0750766,266.267,0.460795,266.967,-0.0579639
block_1,335,9,4586,1,-0.0751321,266.154,0.47889,266.905,-0.0579638
block_1,336,9,4587,1,-0.0153284,329.992,0.0601891,330.994,-0.00212931
block_1,337,9,4588,1,-0.0153221,329.843,0.0636362,330.912,-0.0021292
block_1,338,9,4589,1,-0.0260473,308.664,0.216172,309.6,-0.0118147
block_1,339,9,4590,1,-0.0260514,308.524,0.224834,309.523,-0.0118144
block_1,340,9,4591,1,-0.0153155,329.688,0.0670402,330.828,-0.00212911
block_1,341,9,4592,1,-0.0153088,329.529,0.0704051,330.74,-0.00212903
block_1,342,9,4593,1,-0.0260557,308.38,0.233461,309.444,-0.0118142
block_1,343,9,4594,1,-0.0260602,308.23,0.242057,309.362,-0.0118139
block_1,344,9,4595,1,-0.0461987,287.346,0.361762,288.215,-0.0306361
block_1,345,9,4596,1,-0.0462245,287.216,0.375292,288.144,-0.0306356
block_1,346,9,4597,1,-0.0751892,266.038,0.49696,266.841,-0.0579633
block_1,347,9,4598,1,-0.0752482,265.917,0.515009,266.775,-0.0579627
block_1,348,9,4599,1,-0.0462511,287.081,0.388794,288.07,-0.0306351
block_1,349,9,4600,1,-0.0462788,286.942,0.402272,287.995,-0.0306347
block_1,350,9,4601,1,-0.0753093,265.792,0.533038,266.707,-0.057962
block_1,351,9,4602,1,-0.0753725,265.663,0.551048,266.637,-0.0579613
block_1,352,9,4603,1,-0.112051,245.146,0.532729,245.699,-0.0931612
block_1,353,9,4604,1,-0.112145,245.049,0.555014,245.646,-0.0931647
block_1,354,9,4605,1,-0.156789,223.818,0.631926,224.322,-0.135605
block_1,355,9,4606,1,-0.156936,223.73,0.658002,224.274,-0.135611
block_1,356,9,4607,1,-0.112241,244.949,0.577281,245.591,-0.0931662
block_1,357,9,4608,1,-0.11234,244.845,0.599531,245.534,-0.0931666
block_1,358,9,4609,1,-0.157086,223.639,0.684069,224.224,-0.135614
block_1,359,9,4610,1,-0.15724,223.544,0.710128,224.172,-0.135615
block_1,360,9,4611,1,-0.208657,202.498,0.722113,202.953,-0.184665
block_1,361,9,4612,1,-0.20887,202.419,0.751634,202.91,-0.184673
block_1,362,9,4613,1,-0.267179,181.185,0.803287,181.591,-0.23971
block_1,363,9,4614,1,-0.267473,181.114,0.83591,181.552,-0.239721
block_1,364,9,4615,1,-0.209088,202.336,0.781156,202.864,-0.184677
block_1,365,9,4616,1,-0.209311,202.25,0.810677,202.817,-0.184679
block_1,366,9,4617,1,-0.267775,181.04,0.868542,181.512,-0.239726
block_1,367,9,4618,1,-0.268085,180.963,0.90118,181.47,-0.239729
block_1,368,9,4619,1,-0.112441,244.738,0.621766,245.476,-0.0931663
block_1,369,9,4620,1,-0.112546,244.626,0.643986,245.415,-0.0931656
block_1,370,9,4621,1,-0.157399,223.446,0.736179,224.119,-0.135615
block_1,371,9,4622,1,-0.157562,223.344,0.762222,224.063,-0.135614
block_1,372,9,4623,1,-0.112654,244.512,0.666193,245.352,-0.0931647
block_1,373,9,4624,1,-0.112766,244.393,0.688388,245.288,-0.0931639
block_1,374,9,4625,1,-0.157732,223.239,0.788259,224.006,-0.135613
block_1,375,9,4626,1,-0.157907,223.131,0.81429,223.947,-0.135612
block_1,376,9,4627,1,-0.209542,202.161,0.840198,202.769,-0.184679
block_1,377,9,4628,1,-0.20978,202.069,0.869718,202.719,-0.184679
block_1,378,9,4629,1,-0.268405,180.883,0.933823,181.426,-0.23973
block_1,379,9,4630,1,-0.268736,180.801,0.966472,181.382,-0.23973
block_1,380,9,4631,1,-0.210026,201.974,0.899236,202.667,-0.184678
block_1,381,9,4632,1,-0.210281,201.876,0.928754,202.614,-0.184677
block_1,382,9,4633,1,-0.269078,180.716,0.999124,181.335,-0.239729
block_1,383,9,4634,1,-0.269431,180.628,1.03178,181.288,-0.239728
block_1,384,9,4635,1,-0.328544,160.298,0.593368,160.464,-0.299196
block_1,385,9,4636,1,-0.329097,160.253,0.628475,160.44,-0.29949
block_1,386,9,4637,1,-0.398497,138.94,0.63739,139.083,-0.364288
block_1,387,9,4638,1,-0.399144,138.901,0.674877,139.062,-0.364591
block_1,388,9,4639,1,-0.32958,160.207,0.663643,160.414,-0.299699
block_1,389,9,4640,1,-0.330016,160.158,0.698862,160.388,-0.299845
block_1,390,9,4641,1,-0.399724,138.861,0.712425,139.04,-0.364808
block_1,391,9,4642,1,-0.40026,138.818,0.750025,139.017,-0.36496
block_1,392,9,4643,1,-0.474319,117.586,0.675082,117.706,-0.433535
block_1,393,9,4644,1,-0.475068,117.553,0.714623,117.689,-0.43383
block_1,394,9,4645,1,-0.556504,96.236,0.706462,96.3338,-0.506308
block_1,395,9,4646,1,-0.557379,96.2093,0.747726,96.3194,-0.506577
block_1,396,9,4647,1,-0.475761,117.519,0.754221,117.67,-0.434041
block_1,397,9,4648,1,-0.476418,117.483,0.79387,117.65,-0.434191
block_1,398,9,4649,1,-0.558214,96.1812,0.789041,96.3043,-0.506771
block_1,399,9,4650,1,-0.559029,96.1518,0.830404,96.2883,-0.506909
block_1,400,9,4651,1,-0.330423,160.106,0.734122,160.36,-0.299947
block_1,401,9,4652,1,-0.330813,160.053,0.769416,160.33,-0.300016
block_1,402,9,4653,1,-0.400771,138.774,0.787671,138.992,-0.365067
block_1,403,9,4654,1,-0.40127,138.727,0.825356,138.967,-0.36514
block_1,404,9,4655,1,-0.331196,159.997,0.804738,160.3,-0.300063
block_1,405,9,4656,1,-0.331578,159.938,0.840083,160.268,-0.300093
block_1,406,9,4657,1,-0.401765,138.679,0.863074,138.941,-0.365189
block_1,407,9,4658,1,-0.402264,138.628,0.900823,138.913,-0.365222
block_1,408,9,4659,1,-0.477058,117.445,0.833567,117.63,-0.434296
block_1,409,9,4660,1,-0.477692,117.406,0.873305,117.609,-0.434369
block_1,410,9,4661,1,-0.559839,96.1209,0.871814,96.2716,-0.507007
block_1,411,9,4662,1,-0.560655,96.0886,0.913266,96.2541,-0.507074
block_1,412,9,4663,1,-0.47833,117.365,0.913081,117.586,-0.434418
block_1,413,9,4664,1,-0.478978,117.322,0.952891,117.563,-0.434451
block_1,414,9,4665,1,-0.561486,96.055,0.954759,96.2359,-0.50712
block_1,415,9,4666,1,-0.562337,96.0199,0.996289,96.2168,-0.507151
block_1,416,9,4667,1,-0.646805,74.8891,0.731548,74.9649,-0.581974
block_1,417,9,4668,1,-0.647865,74.8683,0.774199,74.9537,-0.582202
block_1,418,9,4669,1,-0.750752,53.5445,0.750356,53.5985,-0.659897
block_1,419,9,4670,1,-0.75214,53.5297,0.794052,53.5906,-0.66007
block_1,420,9,4671,1,-0.648909,74.8465,0.816893,74.9419,-0.582367
block_1,421,9,4672,1,-0.649956,74.8235,0.859631,74.9295,-0.582485
block_1,422,9,4673,1,-0.753551,53.5141,0.837784,53.5822,-0.660196
block_1,423,9,4674,1,-0.754997,53.4977,0.881558,53.5733,-0.660286
block_1,424,9,4675,1,-0.890016,32.2017,0.7629,32.2341,-0.739435
block_1,425,9,4676,1,-0.892172,32.1928,0.807296,32.2293,-0.739544
block_1,426,9,4677,1,-1.25709,10.8599,0.769189,10.8708,-0.819946
block_1,427,9,4678,1,-1.26216,10.8569,0.813937,10.8692,-0.819983
block_1,428,9,4679,1,-0.894416,32.1834,0.851723,32.2243,-0.739622
block_1,429,9,4680,1,-0.896756,32.1735,0.896189,32.2189,-0.739679
block_1,430,9,4681,1,-1.26751,10.8537,0.858713,10.8675,-0.82001
block_1,431,9,4682,1,-1.27314,10.8504,0.903526,10.8657,-0.820029
block_1,432,9,4683,1,-0.651017,74.7995,0.902415,74.9165,-0.582568
block_1,433,9,4684,1,-0.652101,74.7744,0.945242,74.9029,-0.582626
block_1,434,9,4685,1,-0.756488,53.4805,0.925375,53.564,-0.66035
block_1,435,9,4686,1,-0.758031,53.4625,0.969234,53.5543,-0.660394
block_1,436,9,4687,1,-0.653217,74.7482,0.98811,74.8887,-0.582666
block_1,437,9,4688,1,-0.654369,74.7209,1.03102,74.8739,-0.582693
block_1,438,9,4689,1,-0.759632,53.4438,1.01314,53.5442,-0.660425
block_1,439,9,4690,1,-0.761295,53.4243,1.05708,53.5336,-0.660446
block_1,440,9,4691,1,-0.899199,32.1632,0.940695,32.2134,-0.739719
block_1,441,9,4692,1,-0.90175,32.1524,0.985245,32.2075,-0.739747
block_1,442,9,4693,1,-1.27906,10.8469,0.94838,10.8638,-0.820043
block_1,443,9,4694,1,-1.28527,10.8433,0.993276,10.8618,-0.820053
block_1,444,9,4695,1,-0.904412,32.1412,1.02984,32.2014,-0.739767
block_1,445,9,4696,1,-0.90719,32.1294,1.07447,32.1951,-0.73978
block_1,446,9,4697,1,-1.29177,10.8395,1.03821,10.8598,-0.82006
block_1,447,9,4698,1,-1.29857,10.8356,1.08319,10.8576,-0.820065
block_1,448,9,4699,1,-0.331965,159.878,0.875448,160.235,-0.300113
block_1,449,9,4700,1,-0.332359,159.815,0.91083,160.201,-0.300125
block_1,450,9,4701,1,-0.402772,138.575,0.938596,138.885,-0.365243
block_1,451,9,4702,1,-0.403293,138.521,0.976392,138.855,-0.365256
block_1,452,9,4703,1,-0.332765,159.749,0.946226,160.165,-0.300132
block_1,453,9,4704,1,-0.333182,159.681,0.981635,160.128,-0.300135
block_1,454,9,4705,1,-0.403829,138.464,1.01421,138.824,-0.365264
block_1,455,9,4706,1,-0.404382,138.405,1.05204,138.792,-0.365268
block_1,456,9,4707,1,-0.479643,117.277,0.992731,117.539,-0.434473
block_1,457,9,4708,1,-0.480326,117.231,1.0326,117.514,-0.434486
block_1,458,9,4709,1,-0.563215,95.9834,1.03785,96.197,-0.507172
block_1,459,9,4710,1,-0.564121,95.9455,1.07944,96.1764,-0.507185
block_1,460,9,4711,1,-0.481032,117.183,1.07249,117.487,-0.434494
block_1,461,9,4712,1,-0.481762,117.133,1.1124,117.46,-0.434499
block_1,462,9,4713,1,-0.565058,95.9062,1.12107,96.155,-0.507192
block_1,463,9,4714,1,-0.566029,95.8654,1.16271,96.1329,-0.507197
block_1,464,9,4715,1,-0.333614,159.611,1.01705,160.09,-0.300137
block_1,465,9,4716,1,-0.33406,159.538,1.05248,160.05,-0.300137
block_1,466,9,4717,1,-0.404954,138.344,1.08989,138.759,-0.36527
block_1,467,9,4718,1,-0.405545,138.281,1.12775,138.725,-0.365271
block_1,468,9,4719,1,-0.33452,159.463,1.08792,160.01,-0.300137
block_1,469,9,4720,1,-0.334997,159.386,1.12337,159.967,-0.300136
block_1,470,9,4721,1,-0.406156,138.216,1.16563,138.689,-0.365271
block_1,471,9,4722,1,-0.406788,138.149,1.20352,138.653,-0.36527
block_1,472,9,4723,1,-0.482516,117.082,1.15233,117.432,-0.434501
block_1,473,9,4724,1,-0.483297,117.028,1.19228,117.403,-0.434502
block_1,474,9,4725,1,-0.567034,95.8233,1.20438,96.11,-0.507199
block_1,475,9,4726,1,-0.568074,95.7796,1.24607,96.0863,-0.5072
block_1,476,9,4727,1,-0.484105,116.973,1.23225,117.374,-0.434502
block_1,477,9,4728,1,-0.48494,116.917,1.27223,117.343,-0.434502
block_1,478,9,4729,1,-0.569151,95.7346,1.28778,96.0618,-0.507201
block_1,479,9,4730,1,-0.570264,95.6881,1.3295,96.0366,-0.5072
block_1,480,9,4731,1,-0.655561,74.6925,1.07396,74.8585,-0.582711
block_1,481,9,4732,1,-0.656797,74.663,1.11693,74.8425,-0.582722
block_1,482,9,4733,1,-0.763024,53.404,1.10105,53.5226,-0.66046
block_1,483,9,4734,1,-0.76482,53.3829,1.14507,53.5111,-0.660469
block_1,484,9,4735,1,-0.658079,74.6324,1.15994,74.8259,-0.582729
block_1,485,9,4736,1,-0.659408,74.6007,1.20297,74.8086,-0.582733
block_1,486,9,4737,1,-0.766686,53.361,1.18911,53.4992,-0.660474
block_1,487,9,4738,1,-0.768622,53.3383,1.23319,53.4869,-0.660478
block_1,488,9,4739,1,-0.910084,32.1172,1.11914,32.1884,-0.739789
block_1,489,9,4740,1,-0.913097,32.1045,1.16384,32.1816,-0.739795
block_1,490,9,4741,1,-1.30566,10.8315,1.12821,10.8554,-0.820068
block_1,491,9,4742,1,-1.31305,10.8272,1.17326,10.8531,-0.820071
block_1,492,9,4743,1,-0.916229,32.0914,1.20858,32.1744,-0.739799
block_1,493,9,4744,1,-0.919483,32.0778,1.25335,32.167,-0.739801
block_1,494,9,4745,1,-1.32074,10.8228,1.21835,10.8507,-0.820072
block_1,495,9,4746,1,-1.32873,10.8182,1.26346,10.8482,-0.820074
block_1,496,9,4747,1,-0.660785,74.5678,1.24603,74.7908,-0.582736
block_1,497,9,4748,1,-0.662211,74.5339,1.28911,74.7724,-0.582737
block_1,498,9,4749,1,-0.77063,53.3149,1.27729,53.4742,-0.66048
block_1,499,9,4750,1,-0.77271,53.2906,1.32141,53.461,-0.660481
block_1,500,9,4751,1,-0.663687,74.4988,1.33221,74.7534,-0.582737
block_1,501,9,4752,1,-0.665213,74.4627,1.37533,74.7337,-0.582737
block_1,502,9,4753,1,-0.774864,53.2655,1.36556,53.4474,-0.660481
block_1,503,9,4754,1,-0.77709,53.2397,1.40973,53.4334,-0.660482
block_1,504,9,4755,1,-0.922858,32.0636,1.29815,32.1594,-0.739803
block_1,505,9,4756,1,-0.926356,32.0491,1.34297,32.1515,-0.739804
block_1,506,9,4757,1,-1.33701,10.8135,1.30861,10.8456,-0.820075
block_1,507,9,4758,1,-1.3456,10.8086,1.35378,10.843,-0.820075
block_1,508,9,4759,1,-0.929976,32.034,1.38781,32.1433,-0.739804
block_1,509,9,4760,1,-0.933719,32.0184,1.43268,32.1348,-0.739805
block_1,510,9,4761,1,-1.35449,10.8035,1.39898,10.8402,-0.820076
block_1,511,9,4762,1,-1.36368,10.7983,1.4442,10.8374,-0.820076
block_1,512,9,4763,1,-0.0153018,329.364,0.0737346,330.65,-0.00212896
block_1,513,9,4764,1,-0.0152946,329.194,0.0770318,330.558,-0.0021289
block_1,514,9,4765,1,-0.0260648,308.076,0.250624,309.278,-0.0118137
block_1,515,9,4766,1,-0.0260696,307.918,0.259165,309.192,-0.0118136
block_1,516,9,4767,1,-0.0152872,329.02,0.0802996,330.463,-0.00212885
block_1,517,9,4768,1,-0.0152796,328.84,0.0835404,330.365,-0.0021288
block_1,518,9,4769,1,-0.0260746,307.754,0.267682,309.103,-0.0118134
block_1,519,9,4770,1,-0.0260798,307.586,0.276177,309.011,-0.0118133
block_1,520,9,4771,1,-0.0463074,286.799,0.415727,287.916,-0.0306343
block_1,521,9,4772,1,-0.046337,286.651,0.429162,287.836,-0.0306339
block_1,522,9,4773,1,-0.0754379,265.53,0.569043,266.564,-0.0579607
block_1,523,9,4774,1,-0.0755055,265.393,0.587022,266.49,-0.0579601
block_1,524,9,4775,1,-0.0463675,286.499,0.442578,287.753,-0.0306336
block_1,525,9,4776,1,-0.0463991,286.342,0.455977,287.668,-0.0306334
block_1,526,9,4777,1,-0.0755753,265.253,0.604988,266.413,-0.0579597
block_1,527,9,4778,1,-0.0756474,265.108,0.622941,266.334,-0.0579593
block_1,528,9,4779,1,-0.0152718,328.656,0.0867566,330.264,-0.00212877
block_1,529,9,4780,1,-0.0152638,328.466,0.08995,330.161,-0.00212874
block_1,530,9,4781,1,-0.0260852,307.413,0.284652,308.917,-0.0118132
block_1,531,9,4782,1,-0.0260908,307.236,0.293109,308.82,-0.0118131
block_1,532,9,4783,1,-0.0152555,328.272,0.0931224,330.055,-0.00212872
block_1,533,9,4784,1,-0.0152471,328.072,0.0962755,329.947,-0.0021287
block_1,534,9,4785,1,-0.0260965,307.054,0.301549,308.721,-0.0118131
block_1,535,9,4786,1,-0.0261024,306.867,0.309973,308.62,-0.011813
block_1,536,9,4787,1,-0.0464317,286.181,0.469361,287.58,-0.0306332
block_1,537,9,4788,1,-0.0464653,286.016,0.482731,287.49,-0.0306331
block_1,538,9,4789,1,-0.0757216,264.959,0.640883,266.253,-0.057959
block_1,539,9,4790,1,-0.0757981,264.806,0.658814,266.17,-0.0579587
block_1,540,9,4791,1,-0.0464999,285.847,0.496087,287.398,-0.0306329
block_1,541,9,4792,1,-0.0465355,285.673,0.509431,287.304,-0.0306329
block_1,542,9,4793,1,-0.0758769,264.649,0.676736,266.085,-0.0579585
block_1,543,9,4794,1,-0.0759579,264.488,0.694649,265.997,-0.0579584
block_1,544,9,4795,1,-0.112882,244.271,0.710572,245.221,-0.093163
block_1,545,9,4796,1,-0.113001,244.145,0.732746,245.153,-0.0931623
block_1,546,9,4797,1,-0.158088,223.019,0.840315,223.886,-0.135611
block_1,547,9,4798,1,-0.158275,222.904,0.866334,223.824,-0.135611
block_1,548,9,4799,1,-0.113125,244.015,0.754912,245.082,-0.0931617
block_1,549,9,4800,1,-0.113252,243.882,0.777068,245.009,-0.0931611
block_1,550,9,4801,1,-0.158468,222.786,0.892349,223.759,-0.13561
block_1,551,9,4802,1,-0.158667,222.664,0.918359,223.693,-0.135609
block_1,552,9,4803,1,-0.210544,201.775,0.95827,202.559,-0.184676
block_1,553,9,4804,1,-0.210815,201.671,0.987786,202.502,-0.184675
block_1,554,9,4805,1,-0.269796,180.538,1.06444,181.238,-0.239727
block_1,555,9,4806,1,-0.270173,180.445,1.0971,181.188,-0.239726
block_1,556,9,4807,1,-0.211096,201.564,1.0173,202.444,-0.184674
block_1,557,9,4808,1,-0.211385,201.454,1.04681,202.384,-0.184674
block_1,558,9,4809,1,-0.270562,180.349,1.12977,181.136,-0.239725
block_1,559,9,4810,1,-0.270962,180.25,1.16243,181.082,-0.239724
block_1,560,9,4811,1,-0.113383,243.745,0.799218,244.935,-0.0931607
block_1,561,9,4812,1,-0.113519,243.604,0.82136,244.858,-0.0931604
block_1,562,9,4813,1,-0.158872,222.539,0.944366,223.625,-0.135609
block_1,563,9,4814,1,-0.159083,222.41,0.970368,223.555,-0.135608
block_1,564,9,4815,1,-0.113658,243.46,0.843496,244.78,-0.0931601
block_1,565,9,4816,1,-0.113801,243.311,0.865626,244.7,-0.0931599
block_1,566,9,4817,1,-0.1593,222.278,0.996368,223.484,-0.135608
block_1,567,9,4818,1,-0.159523,222.143,1.02236,223.41,-0.135608
block_1,568,9,4819,1,-0.211682,201.341,1.07633,202.323,-0.184673
block_1,569,9,4820,1,-0.211989,201.224,1.10584,202.259,-0.184672
block_1,570,9,4821,1,-0.271375,180.149,1.1951,181.027,-0.239724
block_1,571,9,4822,1,-0.2718,180.045,1.22777,180.971,-0.239723
block_1,572,9,4823,1,-0.212304,201.105,1.13535,202.195,-0.184672
block_1,573,9,4824,1,-0.212628,200.982,1.16486,202.128,-0.184672
block_1,574,9,4825,1,-0.272238,179.938,1.26044,180.913,-0.239723
block_1,575,9,4826,1,-0.272687,179.828,1.29312,180.853,-0.239723
block_1,576,9,4827,1,-0.0152384,327.867,0.0994107,329.835,-0.00212868
block_1,577,9,4828,1,-0.0152295,327.657,0.102529,329.721,-0.00212867
block_1,578,9,4829,1,-0.0261085,306.676,0.318383,308.516,-0.011813
block_1,579,9,4830,1,-0.0261148,306.479,0.32678,308.409,-0.011813
block_1,580,9,4831,1,-0.0152204,327.443,0.105632,329.605,-0.00212866
block_1,581,9,4832,1,-0.0152111,327.223,0.108721,329.486,-0.00212865
block_1,582,9,4833,1,-0.0261213,306.279,0.335163,308.3,-0.011813
block_1,583,9,4834,1,-0.026128,306.073,0.343536,308.189,-0.0118129
block_1,584,9,4835,1,-0.046572,285.494,0.522764,287.207,-0.0306328
block_1,585,9,4836,1,-0.0466096,285.312,0.536087,287.108,-0.0306327
block_1,586,9,4837,1,-0.0760411,264.322,0.712553,265.908,-0.0579583
block_1,587,9,4838,1,-0.0761265,264.153,0.73045,265.816,-0.0579583
block_1,588,9,4839,1,-0.0466481,285.125,0.549399,287.006,-0.0306327
block_1,589,9,4840,1,-0.0466877,284.933,0.562703,286.902,-0.0306327
block_1,590,9,4841,1,-0.0762142,263.98,0.74834,265.722,-0.0579582
block_1,591,9,4842,1,-0.0763042,263.803,0.766224,265.626,-0.0579582
block_1,592,9,4843,1,-0.0152016,326.998,0.111796,329.364,-0.00212864
block_1,593,9,4844,1,-0.0151919,326.768,0.114859,329.239,-0.00212863
block_1,594,9,4845,1,-0.0261348,305.863,0.351897,308.075,-0.0118129
block_1,595,9,4846,1,-0.0261418,305.648,0.360249,307.958,-0.0118129
block_1,596,9,4847,1,-0.0151819,326.534,0.11791,329.112,-0.00212863
block_1,597,9,4848,1,-0.0151718,326.294,0.12095,328.982,-0.00212862
block_1,598,9,4849,1,-0.026149,305.428,0.368591,307.839,-0.0118129
block_1,599,9,4850,1,-0.0261565,305.203,0.376924,307.718,-0.0118129
block_1,600,9,4851,1,-0.0467283,284.737,0.575999,286.796,-0.0306327
block_1,601,9,4852,1,-0.0467698,284.537,0.589287,286.688,-0.0306327
block_1,602,9,4853,1,-0.0763964,263.621,0.784101,265.527,-0.0579582
block_1,603,9,4854,1,-0.0764908,263.436,0.801972,265.427,-0.0579582
block_1,604,9,4855,1,-0.0468124,284.332,0.602567,286.577,-0.0306327
block_1,605,9,4856,1,-0.046856,284.123,0.615841,286.464,-0.0306327
block_1,606,9,4857,1,-0.0765875,263.247,0.819838,265.324,-0.0579583
block_1,607,9,4858,1,-0.0766865,263.053,0.8377,265.219,-0.0579583
block_1,608,9,4859,1,-0.113948,243.159,0.887751,244.617,-0.0931598
block_1,609,9,4860,1,-0.114099,243.004,0.909871,244.533,-0.0931597
block_1,610,9,4861,1,-0.159753,222.004,1.04836,223.335,-0.135608
block_1,611,9,4862,1,-0.159988,221.862,1.07435,223.258,-0.135607
block_1,612,9,4863,1,-0.114253,242.844,0.931986,244.446,-0.0931597
block_1,613,9,4864,1,-0.114412,242.681,0.954096,244.358,-0.0931597
block_1,614,9,4865,1,-0.16023,221.717,1.10034,223.179,-0.135607
block_1,615,9,4866,1,-0.160478,221.568,1.12632,223.098,-0.135607
block_1,616,9,4867,1,-0.212961,200.857,1.19437,202.06,-0.184672
block_1,617,9,4868,1,-0.213303,200.728,1.22388,201.99,-0.184672
block_1,618,9,4869,1,-0.273149,179.716,1.32579,180.792,-0.239723
block_1,619,9,4870,1,-0.273623,179.601,1.35847,180.73,-0.239723
block_1,620,9,4871,1,-0.213654,200.596,1.25339,201.919,-0.184672
block_1,621,9,4872,1,-0.214013,200.462,1.2829,201.846,-0.184672
block_1,622,9,4873,1,-0.274109,179.483,1.39115,180.666,-0.239723
block_1,623,9,4874,1,-0.274607,179.362,1.42383,180.601,-0.239723
block_1,624,9,4875,1,-0.114575,242.514,0.976203,244.267,-0.0931597
block_1,625,9,4876,1,-0.114742,242.344,0.998306,244.175,-0.0931598
block_1,626,9,4877,1,-0.160731,221.415,1.15231,223.016,-0.135607
block_1,627,9,4878,1,-0.160992,221.26,1.17829,222.931,-0.135608
block_1,628,9,4879,1,-0.114912,242.169,1.02041,244.08,-0.0931598
block_1,629,9,4880,1,-0.115087,241.991,1.0425,243.984,-0.0931599
block_1,630,9,4881,1,-0.161258,221.1,1.20427,222.845,-0.135608
block_1,631,9,4882,1,-0.16153,220.938,1.23025,222.757,-0.135608
block_1,632,9,4883,1,-0.214382,200.324,1.31241,201.771,-0.184672
block_1,633,9,4884,1,-0.214759,200.183,1.34192,201.695,-0.184672
block_1,634,9,4885,1,-0.275118,179.239,1.45651,180.534,-0.239723
block_1,635,9,4886,1,-0.275641,179.113,1.4892,180.465,-0.239723
block_1,636,9,4887,1,-0.215146,200.039,1.37143,201.617,-0.184672
block_1,637,9,4888,1,-0.215541,199.892,1.40093,201.537,-0.184672
block_1,638,9,4889,1,-0.276177,178.984,1.52188,180.396,-0.239723
block_1,639,9,4890,1,-0.276725,178.852,1.55456,180.324,-0.239723
block_1,640,9,4891,1,-0.335489,159.306,1.15882,159.924,-0.300135
block_1,641,9,4892,1,-0.335997,159.224,1.19428,159.879,-0.300134
block_1,642,9,4893,1,-0.407441,138.08,1.24141,138.615,-0.365269
block_1,643,9,4894,1,-0.408115,138.009,1.27932,138.576,-0.365268
block_1,644,9,4895,1,-0.336521,159.139,1.22974,159.833,-0.300133
block_1,645,9,4896,1,-0.337061,159.052,1.26521,159.786,-0.300132
block_1,646,9,4897,1,-0.40881,137.935,1.31724,138.537,-0.365268
block_1,647,9,4898,1,-0.409527,137.86,1.35516,138.496,-0.365267
block_1,648,9,4899,1,-0.485802,116.858,1.31222,117.311,-0.434501
block_1,649,9,4900,1,-0.486692,116.798,1.35222,117.278,-0.4345
block_1,650,9,4901,1,-0.571414,95.6402,1.37124,96.0105,-0.5072
block_1,651,9,4902,1,-0.572601,95.5908,1.41299,95.9837,-0.507199
block_1,652,9,4903,1,-0.487611,116.736,1.39224,117.244,-0.434499
block_1,653,9,4904,1,-0.488557,116.672,1.43227,117.21,-0.434499
block_1,654,9,4905,1,-0.573825,95.5399,1.45476,95.9562,-0.507199
block_1,655,9,4906,1,-0.575087,95.4877,1.49654,95.9278,-0.507199
block_1,656,9,4907,1,-0.337618,158.963,1.30069,159.738,-0.300132
block_1,657,9,4908,1,-0.33819,158.871,1.33617,159.688,-0.300131
block_1,658,9,4909,1,-0.410265,137.782,1.39309,138.454,-0.365266
block_1,659,9,4910,1,-0.411025,137.703,1.43102,138.41,-0.365266
block_1,660,9,4911,1,-0.33878,158.777,1.37165,159.637,-0.300131
block_1,661,9,4912,1,-0.339385,158.68,1.40714,159.584,-0.300131
block_1,662,9,4913,1,-0.411806,137.621,1.46897,138.366,-0.365266
block_1,663,9,4914,1,-0.412609,137.537,1.50691,138.321,-0.365266
block_1,664,9,4915,1,-0.489532,116.606,1.4723,117.174,-0.434498
block_1,665,9,4916,1,-0.490535,116.539,1.51234,117.138,-0.434498
block_1,666,9,4917,1,-0.576386,95.4339,1.53832,95.8987,-0.507198
block_1,667,9,4918,1,-0.577723,95.3788,1.58012,95.8687,-0.507198
block_1,668,9,4919,1,-0.491567,116.47,1.55239,117.1,-0.434498
block_1,669,9,4920,1,-0.492627,116.399,1.59245,117.062,-0.434498
block_1,670,9,4921,1,-0.579098,95.3221,1.62193,95.838,-0.507198
block_1,671,9,4922,1,-0.580511,95.264,1.66375,95.8066,-0.507198
block_1,672,9,4923,1,-0.66679,74.4254,1.41847,74.7135,-0.582737
block_1,673,9,4924,1,-0.668417,74.3869,1.46162,74.6926,-0.582736
block_1,674,9,4925,1,-0.779391,53.213,1.45391,53.4189,-0.660482
block_1,675,9,4926,1,-0.781766,53.1855,1.49812,53.404,-0.660482
block_1,676,9,4927,1,-0.670096,74.3474,1.50479,74.6712,-0.582736
block_1,677,9,4928,1,-0.671826,74.3067,1.54797,74.6491,-0.582736
block_1,678,9,4929,1,-0.784215,53.1573,1.54233,53.3887,-0.660482
block_1,679,9,4930,1,-0.786738,53.1282,1.58657,53.3729,-0.660482
block_1,680,9,4931,1,-0.937586,32.0024,1.47757,32.1262,-0.739805
block_1,681,9,4932,1,-0.941577,31.9859,1.52247,32.1172,-0.739805
block_1,682,9,4933,1,-1.37317,10.7929,1.48943,10.8345,-0.820077
block_1,683,9,4934,1,-1.38296,10.7873,1.53469,10.8315,-0.820077
block_1,684,9,4935,1,-0.945693,31.9689,1.56739,32.108,-0.739805
block_1,685,9,4936,1,-0.949933,31.9514,1.61233,32.0985,-0.739806
block_1,686,9,4937,1,-1.39306,10.7816,1.57996,10.8284,-0.820078
block_1,687,9,4938,1,-1.40346,10.7757,1.62525,10.8252,-0.820078
block_1,688,9,4939,1,-0.673607,74.2649,1.59116,74.6264,-0.582736
block_1,689,9,4940,1,-0.67544,74.222,1.63437,74.6031,-0.582736
block_1,690,9,4941,1,-0.789337,53.0983,1.63081,53.3567,-0.660482
block_1,691,9,4942,1,-0.79201,53.0676,1.67507,53.34,-0.660482
block_1,692,9,4943,1,-0.677324,74.1779,1.67758,74.5793,-0.582736
block_1,693,9,4944,1,-0.679261,74.1327,1.7208,74.5548,-0.582736
block_1,694,9,4945,1,-0.794759,53.0361,1.71934,53.323,-0.660482
block_1,695,9,4946,1,-0.797584,53.0038,1.76362,53.3055,-0.660482
block_1,696,9,4947,1,-0.954297,31.9335,1.65728,32.0888,-0.739806
block_1,697,9,4948,1,-0.958787,31.915,1.70224,32.0788,-0.739806
block_1,698,9,4949,1,-1.41416,10.7697,1.67055,10.8219,-0.820079
block_1,699,9,4950,1,-1.42517,10.7635,1.71587,10.8185,-0.82008
block_1,700,9,4951,1,-0.963403,31.8961,1.74721,32.0685,-0.739807
block_1,701,9,4952,1,-0.968144,31.8767,1.79219,32.058,-0.739807
block_1,702,9,4953,1,-1.43648,10.7571,1.76119,10.8151,-0.82008
block_1,703,9,4954,1,-1.4481,10.7506,1.80653,10.8115,-0.820081
block_1,704,9,4955,1,-0.340007,158.581,1.44263,159.53,-0.30013
block_1,705,9,4956,1,-0.340645,158.479,1.47812,159.475,-0.30013
block_1,706,9,4957,1,-0.413433,137.451,1.54487,138.274,-0.365265
block_1,707,9,4958,1,-0.41428,137.363,1.58282,138.226,-0.365265
block_1,708,9,4959,1,-0.3413,158.375,1.51362,159.419,-0.30013
block_1,709,9,4960,1,-0.341972,158.269,1.54912,159.361,-0.300131
block_1,710,9,4961,1,-0.415148,137.273,1.62079,138.177,-0.365266
block_1,711,9,4962,1,-0.416038,137.18,1.65875,138.127,-0.365266
block_1,712,9,4963,1,-0.493716,116.326,1.63251,117.022,-0.434498
block_1,713,9,4964,1,-0.494833,116.251,1.67258,116.982,-0.434498
block_1,714,9,4965,1,-0.581962,95.2045,1.70557,95.7743,-0.507198
block_1,715,9,4966,1,-0.583451,95.1435,1.7474,95.7412,-0.507198
block_1,716,9,4967,1,-0.49598,116.175,1.71266,116.94,-0.434498
block_1,717,9,4968,1,-0.497155,116.097,1.75274,116.898,-0.434498
block_1,718,9,4969,1,-0.584978,95.0811,1.78924,95.7074,-0.507199
block_1,719,9,4970,1,-0.586544,95.0171,1.83108,95.6728,-0.507199
block_1,720,9,4971,1,-0.34266,158.16,1.58462,159.302,-0.300131
block_1,721,9,4972,1,-0.343364,158.048,1.62012,159.242,-0.300131
block_1,722,9,4973,1,-0.41695,137.086,1.69672,138.076,-0.365266
block_1,723,9,4974,1,-0.417884,136.99,1.73469,138.024,-0.365266
block_1,724,9,4975,1,-0.344086,157.935,1.65563,159.18,-0.300131
block_1,725,9,4976,1,-0.344824,157.819,1.69114,159.118,-0.300131
block_1,726,9,4977,1,-0.418841,136.891,1.77267,137.971,-0.365267
block_1,727,9,4978,1,-0.41982,136.79,1.81065,137.916,-0.365267
block_1,728,9,4979,1,-0.498359,116.017,1.79283,116.855,-0.434499
block_1,729,9,4980,1,-0.499593,115.935,1.83292,116.811,-0.434499
block_1,730,9,4981,1,-0.588149,94.9518,1.87293,95.6374,-0.507199
block_1,731,9,4982,1,-0.589792,94.8849,1.91479,95.6012,-0.5072
block_1,732,9,4983,1,-0.500855,115.852,1.87301,116.766,-0.4345
block_1,733,9,4984,1,-0.502147,115.767,1.91311,116.719,-0.4345
block_1,734,9,4985,1,-0.591475,94.8166,1.95665,95.5643,-0.5072
block_1,735,9,4986,1,-0.593196,94.7469,1.99851,95.5265,-0.507201
block_1,736,9,4987,1,-0.68125,74.0864,1.76403,74.5297,-0.582736
block_1,737,9,4988,1,-0.683291,74.0389,1.80727,74.5039,-0.582737
block_1,738,9,4989,1,-0.800484,52.9707,1.80791,53.2875,-0.660483
block_1,739,9,4990,1,-0.80346,52.9368,1.8522,53.2691,-0.660483
block_1,740,9,4991,1,-0.685384,73.9903,1.85052,74.4776,-0.582737
block_1,741,9,4992,1,-0.687531,73.9406,1.89378,74.4507,-0.582738
block_1,742,9,4993,1,-0.806513,52.902,1.89651,53.2503,-0.660484
block_1,743,9,4994,1,-0.809642,52.8665,1.94082,53.2311,-0.660484
block_1,744,9,4995,1,-0.973011,31.8568,1.83719,32.0472,-0.739808
block_1,745,9,4996,1,-0.978005,31.8364,1.88219,32.0361,-0.739808
block_1,746,9,4997,1,-1.46002,10.7439,1.85188,10.8079,-0.820082
block_1,747,9,4998,1,-1.47224,10.737,1.89723,10.8042,-0.820082
block_1,748,9,4999,1,-0.983126,31.8155,1.9272,32.0248,-0.739809
block_1,749,9,5000,1,-0.988374,31.7941,1.97222,32.0133,-0.73981
block_1,750,9,5001,1,-1.48477,10.73,1.9426,10.8004,-0.820083
block_1,751,9,5002,1,-1.4976,10.7228,1.98797,10.7965,-0.820084
block_1,752,9,5003,1,-0.68973,73.8897,1.93704,74.4231,-0.582738
block_1,753,9,5004,1,-0.691982,73.8377,1.9803,74.395,-0.582739
block_1,754,9,5005,1,-0.812847,52.8301,1.98514,53.2114,-0.660485
block_1,755,9,5006,1,-0.81613,52.7929,2.02947,53.1913,-0.660486
block_1,756,9,5007,1,-0.694287,73.7846,2.02358,74.3662,-0.582739
block_1,757,9,5008,1,-0.696646,73.7303,2.06685,74.3369,-0.58274
block_1,758,9,5009,1,-0.819491,52.7549,2.0738,53.1707,-0.660486
block_1,759,9,5010,1,-0.822928,52.7161,2.11814,53.1497,-0.660487
block_1,760,9,5011,1,-0.99375,31.7723,2.01725,32.0014,-0.73981
block_1,761,9,5012,1,-0.999254,31.7499,2.06228,31.9893,-0.739811
block_1,762,9,5013,1,-1.51074,10.7155,2.03336,10.7925,-0.820085
block_1,763,9,5014,1,-1.52418,10.708,2.07874,10.7885,-0.820086
block_1,764,9,5015,1,-1.00489,31.7271,2.10732,31.977,-0.739812
block_1,765,9,5016,1,-1.01065,31.7038,2.15237,31.9644,-0.739813
block_1,766,9,5017,1,-1.53793,10.7003,2.12414,10.7843,-0.820086
block_1,767,9,5018,1,-1.55198,10.6924,2.16954,10.7801,-0.820087
block_1,768,9,5019,1,-0.0151614,326.049,0.12398,328.849,-0.00212862
block_1,769,9,5020,1,-0.0151508,325.799,0.127,328.714,-0.00212862
block_1,770,9,5021,1,-0.026164,304.974,0.385249,307.593,-0.0118129
block_1,771,9,5022,1,-0.0261718,304.74,0.393566,307.467,-0.0118129
block_1,772,9,5023,1,-0.01514,325.544,0.130012,328.576,-0.00212862
block_1,773,9,5024,1,-0.015129,325.284,0.133014,328.435,-0.00212861
block_1,774,9,5025,1,-0.0261798,304.502,0.401876,307.338,-0.011813
block_1,775,9,5026,1,-0.026188,304.259,0.410179,307.206,-0.011813
block_1,776,9,5027,1,-0.0469006,283.91,0.629108,286.348,-0.0306328
block_1,777,9,5028,1,-0.0469463,283.692,0.642369,286.23,-0.0306328
block_1,778,9,5029,1,-0.0767878,262.855,0.855556,265.112,-0.0579584
block_1,779,9,5030,1,-0.0768914,262.654,0.873408,265.003,-0.0579584
block_1,780,9,5031,1,-0.0469929,283.47,0.655624,286.11,-0.0306328
block_1,781,9,5032,1,-0.0470406,283.244,0.668875,285.987,-0.0306328
block_1,782,9,5033,1,-0.0769973,262.448,0.891257,264.892,-0.0579585
block_1,783,9,5034,1,-0.0771055,262.238,0.909101,264.778,-0.0579585
block_1,784,9,5035,1,-0.0151178,325.019,0.136009,328.291,-0.00212861
block_1,785,9,5036,1,-0.0151063,324.748,0.138995,328.145,-0.00212861
block_1,786,9,5037,1,-0.0261964,304.011,0.418475,307.072,-0.011813
block_1,787,9,5038,1,-0.0262049,303.758,0.426766,306.935,-0.011813
block_1,788,9,5039,1,-0.0150947,324.473,0.141975,327.996,-0.00212861
block_1,789,9,5040,1,-0.0150828,324.193,0.144948,327.845,-0.00212861
block_1,790,9,5041,1,-0.0262137,303.5,0.43505,306.796,-0.011813
block_1,791,9,5042,1,-0.0262227,303.238,0.443329,306.654,-0.011813
block_1,792,9,5043,1,-0.0470893,283.013,0.68212,285.862,-0.0306329
block_1,793,9,5044,1,-0.0471391,282.777,0.69536,285.735,-0.0306329
block_1,794,9,5045,1,-0.077216,262.024,0.926941,264.663,-0.0579586
block_1,795,9,5046,1,-0.0773289,261.807,0.944778,264.545,-0.0579587
block_1,796,9,5047,1,-0.04719,282.538,0.708596,285.605,-0.0306329
block_1,797,9,5048,1,-0.0472419,282.294,0.721828,285.473,-0.030633
block_1,798,9,5049,1,-0.0774441,261.585,0.962612,264.425,-0.0579587
block_1,799,9,5050,1,-0.0775617,261.359,0.980443,264.302,-0.0579588
block_1,800,9,5051,1,-0.115266,241.81,1.06459,243.886,-0.09316
block_1,801,9,5052,1,-0.115449,241.624,1.08668,243.785,-0.0931601
block_1,802,9,5053,1,-0.161809,220.772,1.25622,222.667,-0.135608
block_1,803,9,5054,1,-0.162094,220.602,1.2822,222.575,-0.135608
block_1,804,9,5055,1,-0.115635,241.435,1.10877,243.683,-0.0931602
block_1,805,9,5056,1,-0.115826,241.242,1.13086,243.578,-0.0931603
block_1,806,9,5057,1,-0.162386,220.43,1.30817,222.482,-0.135608
block_1,807,9,5058,1,-0.162683,220.253,1.33414,222.386,-0.135608
block_1,808,9,5059,1,-0.215946,199.741,1.43044,201.456,-0.184672
block_1,809,9,5060,1,-0.216359,199.588,1.45995,201.373,-0.184672
block_1,810,9,5061,1,-0.277286,178.718,1.58725,180.252,-0.239723
block_1,811,9,5062,1,-0.277859,178.58,1.61994,180.177,-0.239724
block_1,812,9,5063,1,-0.216782,199.432,1.48946,201.288,-0.184673
block_1,813,9,5064,1,-0.217214,199.272,1.51896,201.202,-0.184673
block_1,814,9,5065,1,-0.278445,178.441,1.65262,180.102,-0.239724
block_1,815,9,5066,1,-0.279044,178.298,1.68531,180.025,-0.239724
block_1,816,9,5067,1,-0.116021,241.045,1.15294,243.472,-0.0931604
block_1,817,9,5068,1,-0.11622,240.845,1.17502,243.363,-0.0931605
block_1,818,9,5069,1,-0.162988,220.074,1.36012,222.289,-0.135608
block_1,819,9,5070,1,-0.163298,219.891,1.38609,222.19,-0.135609
block_1,820,9,5071,1,-0.116424,240.64,1.1971,243.253,-0.0931606
block_1,821,9,5072,1,-0.116631,240.432,1.21917,243.141,-0.0931607
block_1,822,9,5073,1,-0.163615,219.704,1.41206,222.089,-0.135609
block_1,823,9,5074,1,-0.163938,219.514,1.43802,221.987,-0.135609
block_1,824,9,5075,1,-0.217655,199.11,1.54847,201.114,-0.184673
block_1,825,9,5076,1,-0.218105,198.944,1.57798,201.025,-0.184673
block_1,826,9,5077,1,-0.279655,178.152,1.718,179.946,-0.239725
block_1,827,9,5078,1,-0.280279,178.004,1.75069,179.866,-0.239725
block_1,828,9,5079,1,-0.218565,198.775,1.60748,200.933,-0.184674
block_1,829,9,5080,1,-0.219034,198.603,1.63699,200.84,-0.184674
block_1,830,9,5081,1,-0.280916,177.853,1.78338,179.784,-0.239725
block_1,831,9,5082,1,-0.281567,177.699,1.81607,179.701,-0.239725
block_1,832,9,5083,1,-0.0150708,323.908,0.147914,327.69,-0.00212861
block_1,833,9,5084,1,-0.0150585,323.617,0.150875,327.533,-0.00212861
block_1,834,9,5085,1,-0.0262319,302.971,0.451603,306.51,-0.011813
block_1,835,9,5086,1,-0.0262413,302.7,0.459872,306.363,-0.011813
block_1,836,9,5087,1,-0.015046,323.322,0.153829,327.374,-0.00212861
block_1,837,9,5088,1,-0.0150333,323.022,0.156778,327.211,-0.00212862
block_1,838,9,5089,1,-0.0262509,302.423,0.468137,306.213,-0.011813
block_1,839,9,5090,1,-0.0262607,302.142,0.476397,306.061,-0.0118131
block_1,840,9,5091,1,-0.0472948,282.045,0.735056,285.339,-0.030633
block_1,841,9,5092,1,-0.0473489,281.792,0.748279,285.202,-0.0306331
block_1,842,9,5093,1,-0.0776817,261.128,0.998271,264.178,-0.0579589
block_1,843,9,5094,1,-0.0778041,260.894,1.0161,264.051,-0.057959
block_1,844,9,5095,1,-0.047404,281.535,0.7615,285.063,-0.0306331
block_1,845,9,5096,1,-0.0474602,281.273,0.774717,284.922,-0.0306331
block_1,846,9,5097,1,-0.0779288,260.656,1.03392,263.923,-0.057959
block_1,847,9,5098,1,-0.078056,260.414,1.05174,263.792,-0.0579591
block_1,848,9,5099,1,-0.0150204,322.716,0.159722,327.046,-0.00212862
block_1,849,9,5100,1,-0.0150073,322.406,0.162661,326.878,-0.00212862
block_1,850,9,5101,1,-0.0262708,301.857,0.484652,305.907,-0.0118131
block_1,851,9,5102,1,-0.0262811,301.566,0.492904,305.75,-0.0118131
block_1,852,9,5103,1,-0.014994,322.09,0.165595,326.708,-0.00212862
block_1,853,9,5104,1,-0.0149805,321.77,0.168524,326.535,-0.00212862
block_1,854,9,5105,1,-0.0262915,301.271,0.501152,305.59,-0.0118131
block_1,855,9,5106,1,-0.0263023,300.971,0.509396,305.428,-0.0118131
block_1,856,9,5107,1,-0.0475175,281.007,0.78793,284.778,-0.0306332
block_1,857,9,5108,1,-0.0475759,280.737,0.801141,284.632,-0.0306332
block_1,858,9,5109,1,-0.0781857,260.167,1.06956,263.659,-0.0579592
block_1,859,9,5110,1,-0.0783178,259.917,1.08737,263.523,-0.0579593
block_1,860,9,5111,1,-0.0476354,280.462,0.814349,284.483,-0.0306333
block_1,861,9,5112,1,-0.0476961,280.183,0.827554,284.332,-0.0306333
block_1,862,9,5113,1,-0.0784523,259.662,1.10519,263.386,-0.0579594
block_1,863,9,5114,1,-0.0785894,259.404,1.123,263.246,-0.0579594
block_1,864,9,5115,1,-0.116842,240.221,1.24125,243.026,-0.0931608
block_1,865,9,5116,1,-0.117058,240.005,1.26332,242.91,-0.093161
block_1,866,9,5117,1,-0.164268,219.321,1.46399,221.882,-0.135609
block_1,867,9,5118,1,-0.164604,219.124,1.48996,221.776,-0.135609
block_1,868,9,5119,1,-0.117278,239.786,1.28539,242.791,-0.0931611
block_1,869,9,5120,1,-0.117502,239.563,1.30746,242.671,-0.0931612
block_1,870,9,5121,1,-0.164947,218.924,1.51592,221.668,-0.135609
block_1,871,9,5122,1,-0.165297,218.72,1.54189,221.558,-0.13561
block_1,872,9,5123,1,-0.219513,198.429,1.6665,200.746,-0.184674
block_1,873,9,5124,1,-0.220001,198.251,1.696,200.65,-0.184674
block_1,874,9,5125,1,-0.28223,177.543,1.84876,179.616,-0.239726
block_1,875,9,5126,1,-0.282906,177.384,1.88146,179.53,-0.239726
block_1,876,9,5127,1,-0.220498,198.069,1.72551,200.552,-0.184675
block_1,877,9,5128,1,-0.221005,197.885,1.75501,200.452,-0.184675
block_1,878,9,5129,1,-0.283595,177.222,1.91415,179.443,-0.239726
block_1,879,9,5130,1,-0.284298,177.057,1.94684,179.354,-0.239727
block_1,880,9,5131,1,-0.117731,239.336,1.32953,242.548,-0.0931613
block_1,881,9,5132,1,-0.117964,239.106,1.3516,242.424,-0.0931615
block_1,882,9,5133,1,-0.165653,218.513,1.56785,221.446,-0.13561
block_1,883,9,5134,1,-0.166016,218.303,1.59381,221.332,-0.13561
block_1,884,9,5135,1,-0.118201,238.872,1.37366,242.297,-0.0931616
block_1,885,9,5136,1,-0.118442,238.634,1.39572,242.169,-0.0931618
block_1,886,9,5137,1,-0.166386,218.089,1.61978,221.217,-0.13561
block_1,887,9,5138,1,-0.166762,217.872,1.64574,221.099,-0.13561
block_1,888,9,5139,1,-0.221522,197.698,1.78452,200.351,-0.184675
block_1,889,9,5140,1,-0.222048,197.508,1.81403,200.248,-0.184675
block_1,890,9,5141,1,-0.285014,176.889,1.97954,179.263,-0.239727
block_1,891,9,5142,1,-0.285743,176.719,2.01223,179.171,-0.239727
block_1,892,9,5143,1,-0.222584,197.314,1.84353,200.144,-0.184676
block_1,893,9,5144,1,-0.22313,197.117,1.87304,200.037,-0.184676
block_1,894,9,5145,1,-0.286486,176.546,2.04493,179.077,-0.239728
block_1,895,9,5146,1,-0.287242,176.37,2.07762,178.982,-0.239728
block_1,896,9,5147,1,-0.345579,157.7,1.72665,159.053,-0.300132
block_1,897,9,5148,1,-0.346351,157.579,1.76216,158.988,-0.300132
block_1,898,9,5149,1,-0.420821,136.687,1.84863,137.861,-0.365267
block_1,899,9,5150,1,-0.421844,136.583,1.88662,137.804,-0.365268
block_1,900,9,5151,1,-0.347141,157.455,1.79767,158.921,-0.300132
block_1,901,9,5152,1,-0.347947,157.329,1.83319,158.853,-0.300133
block_1,902,9,5153,1,-0.42289,136.476,1.92461,137.746,-0.365268
block_1,903,9,5154,1,-0.423959,136.366,1.9626,137.687,-0.365268
block_1,904,9,5155,1,-0.503469,115.68,1.95321,116.672,-0.4345
block_1,905,9,5156,1,-0.50482,115.591,1.99332,116.624,-0.434501
block_1,906,9,5157,1,-0.594957,94.6757,2.04038,95.488,-0.507201
block_1,907,9,5158,1,-0.596757,94.603,2.08225,95.4487,-0.507202
block_1,908,9,5159,1,-0.506201,115.5,2.03343,116.575,-0.434501
block_1,909,9,5160,1,-0.507612,115.408,2.07354,116.525,-0.434502
block_1,910,9,5161,1,-0.598596,94.5288,2.12413,95.4086,-0.507202
block_1,911,9,5162,1,-0.600476,94.4532,2.16601,95.3677,-0.507203
block_1,912,9,5163,1,-0.34877,157.201,1.86871,158.784,-0.300133
block_1,913,9,5164,1,-0.349611,157.07,1.90423,158.713,-0.300133
block_1,914,9,5165,1,-0.425051,136.255,2.00059,137.627,-0.365269
block_1,915,9,5166,1,-0.426165,136.142,2.03859,137.565,-0.365269
block_1,916,9,5167,1,-0.350469,156.937,1.93975,158.641,-0.300134
block_1,917,9,5168,1,-0.351344,156.801,1.97527,158.567,-0.300134
block_1,918,9,5169,1,-0.427302,136.026,2.07659,137.503,-0.36527
block_1,919,9,5170,1,-0.428463,135.909,2.11459,137.439,-0.36527
block_1,920,9,5171,1,-0.509052,115.314,2.11366,116.474,-0.434502
block_1,921,9,5172,1,-0.510523,115.218,2.15377,116.422,-0.434503
block_1,922,9,5173,1,-0.602395,94.3762,2.2079,95.326,-0.507204
block_1,923,9,5174,1,-0.604355,94.2976,2.24978,95.2835,-0.507204
block_1,924,9,5175,1,-0.512025,115.12,2.1939,116.37,-0.434503
block_1,925,9,5176,1,-0.513556,115.02,2.23402,116.316,-0.434504
block_1,926,9,5177,1,-0.606354,94.2176,2.29167,95.2403,-0.507205
block_1,927,9,5178,1,-0.608395,94.1362,2.33357,95.1963,-0.507206
block_1,928,9,5179,1,-0.699058,73.6749,2.11014,74.3069,-0.58274
block_1,929,9,5180,1,-0.701525,73.6183,2.15342,74.2763,-0.582741
block_1,930,9,5181,1,-0.826444,52.6765,2.16248,53.1283,-0.660488
block_1,931,9,5182,1,-0.830038,52.6361,2.20683,53.1064,-0.660488
block_1,932,9,5183,1,-0.704045,73.5606,2.19672,74.2451,-0.582742
block_1,933,9,5184,1,-0.70662,73.5018,2.24001,74.2133,-0.582742
block_1,934,9,5185,1,-0.833711,52.5949,2.25119,53.0841,-0.660489
block_1,935,9,5186,1,-0.837463,52.5528,2.29554,53.0614,-0.66049
block_1,936,9,5187,1,-1.01654,31.6799,2.19742,31.9515,-0.739813
block_1,937,9,5188,1,-1.02256,31.6556,2.24248,31.9383,-0.739814
block_1,938,9,5189,1,-1.56634,10.6844,2.21495,10.7757,-0.820088
block_1,939,9,5190,1,-1.581,10.6763,2.26036,10.7713,-0.820089
block_1,940,9,5191,1,-1.02871,31.6309,2.28754,31.9249,-0.739815
block_1,941,9,5192,1,-1.03499,31.6056,2.33261,31.9113,-0.739816
block_1,942,9,5193,1,-1.59597,10.6679,2.30578,10.7668,-0.82009
block_1,943,9,5194,1,-1.61124,10.6594,2.3512,10.7622,-0.820091
block_1,944,9,5195,1,-0.709249,73.4418,2.28331,74.1808,-0.582743
block_1,945,9,5196,1,-0.711934,73.3807,2.32662,74.1478,-0.582744
block_1,946,9,5197,1,-0.841294,52.5099,2.33991,53.0382,-0.660491
block_1,947,9,5198,1,-0.845204,52.4662,2.38427,53.0146,-0.660491
block_1,948,9,5199,1,-0.714673,73.3185,2.36992,74.1142,-0.582744
block_1,949,9,5200,1,-0.717468,73.2551,2.41323,74.0799,-0.582745
block_1,950,9,5201,1,-0.849194,52.4218,2.42864,52.9905,-0.660492
block_1,951,9,5202,1,-0.853265,52.3764,2.47302,52.966,-0.660493
block_1,952,9,5203,1,-1.0414,31.5798,2.37768,31.8973,-0.739817
block_1,953,9,5204,1,-1.04794,31.5536,2.42275,31.8831,-0.739818
block_1,954,9,5205,1,-1.62682,10.6508,2.39663,10.7575,-0.820092
block_1,955,9,5206,1,-1.6427,10.6419,2.44206,10.7528,-0.820093
block_1,956,9,5207,1,-1.05461,31.5268,2.46783,31.8687,-0.739819
block_1,957,9,5208,1,-1.06142,31.4996,2.51292,31.8539,-0.73982
block_1,958,9,5209,1,-1.65888,10.6329,2.48749,10.7479,-0.820094
block_1,959,9,5210,1,-1.67537,10.6238,2.53293,10.7429,-0.820095
block_1,960,9,5211,1,-0.352237,156.663,2.01079,158.493,-0.300135
block_1,961,9,5212,1,-0.353148,156.523,2.04632,158.417,-0.300135
block_1,962,9,5213,1,-0.429646,135.789,2.15259,137.375,-0.365271
block_1,963,9,5214,1,-0.430853,135.667,2.19059,137.309,-0.365271
block_1,964,9,5215,1,-0.354076,156.38,2.08184,158.34,-0.300135
block_1,965,9,5216,1,-0.355022,156.234,2.11737,158.261,-0.300136
block_1,966,9,5217,1,-0.432083,135.543,2.2286,137.242,-0.365272
block_1,967,9,5218,1,-0.433337,135.417,2.2666,137.174,-0.365272
block_1,968,9,5219,1,-0.515119,114.919,2.27415,116.261,-0.434505
block_1,969,9,5220,1,-0.516712,114.816,2.31427,116.205,-0.434505
block_1,970,9,5221,1,-0.610476,94.0532,2.37547,95.1514,-0.507206
block_1,971,9,5222,1,-0.612598,93.9689,2.41736,95.1058,-0.507207
block_1,972,9,5223,1,-0.518335,114.711,2.3544,116.149,-0.434506
block_1,973,9,5224,1,-0.51999,114.604,2.39454,116.091,-0.434506
block_1,974,9,5225,1,-0.614761,93.883,2.45927,95.0594,-0.507208
block_1,975,9,5226,1,-0.616965,93.7957,2.50117,95.0123,-0.507208
block_1,976,9,5227,1,-0.355986,156.086,2.1529,158.181,-0.300136
block_1,977,9,5228,1,-0.356968,155.936,2.18843,158.1,-0.300137
block_1,978,9,5229,1,-0.434615,135.289,2.30461,137.104,-0.365273
block_1,979,9,5230,1,-0.435916,135.159,2.34262,137.034,-0.365273
block_1,980,9,5231,1,-0.357968,155.783,2.22396,158.017,-0.300137
block_1,981,9,5232,1,-0.358987,155.628,2.25949,157.933,-0.300138
block_1,982,9,5233,1,-0.437242,135.026,2.38063,136.962,-0.365274
block_1,983,9,5234,1,-0.438591,134.892,2.41865,136.89,-0.365274
block_1,984,9,5235,1,-0.521677,114.496,2.43467,116.032,-0.434507
block_1,985,9,5236,1,-0.523394,114.386,2.47481,115.973,-0.434508
block_1,986,9,5237,1,-0.619211,93.7069,2.54308,94.9643,-0.507209
block_1,987,9,5238,1,-0.621498,93.6166,2.58499,94.9155,-0.50721
block_1,988,9,5239,1,-0.525143,114.274,2.51495,115.912,-0.434508
block_1,989,9,5240,1,-0.526924,114.16,2.55509,115.851,-0.434509
block_1,990,9,5241,1,-0.623828,93.5249,2.6269,94.866,-0.50721
block_1,991,9,5242,1,-0.6262,93.4317,2.66881,94.8156,-0.507211
block_1,992,9,5243,1,-0.720318,73.1905,2.45655,74.045,-0.582746
block_1,993,9,5244,1,-0.723225,73.1249,2.49987,74.0095,-0.582747
block_1,994,9,5245,1,-0.857416,52.3303,2.51739,52.9411,-0.660494
block_1,995,9,5246,1,-0.861649,52.2834,2.56177,52.9157,-0.660495
block_1,996,9,5247,1,-0.726187,73.0581,2.54318,73.9734,-0.582747
block_1,997,9,5248,1,-0.729206,72.9901,2.58651,73.9367,-0.582748
block_1,998,9,5249,1,-0.865962,52.2356,2.60616,52.8899,-0.660496
block_1,999,9,5250,1,-0.870358,52.187,2.65054,52.8637,-0.660497
block_1,1000,9,5251,1,-1.06836,31.4718,2.558,31.839,-0.73982
block_1,1001,9,5252,1,-1.07543,31.4436,2.60309,31.8237,-0.739821
block_1,1002,9,5253,1,-1.69216,10.6144,2.57838,10.7379,-0.820096
block_1,1003,9,5254,1,-1.70925,10.605,2.62382,10.7328,-0.820097
block_1,1004,9,5255,1,-1.08264,31.4149,2.64819,31.8082,-0.739822
block_1,1005,9,5256,1,-1.08998,31.3857,2.69328,31.7924,-0.739823
block_1,1006,9,5257,1,-1.72664,10.5953,2.66927,10.7276,-0.820098
block_1,1007,9,5258,1,-1.74434,10.5855,2.71472,10.7223,-0.820099
block_1,1008,9,5259,1,-0.732282,72.921,2.62983,73.8994,-0.582749
block_1,1009,9,5260,1,-0.735415,72.8508,2.67316,73.8615,-0.58275
block_1,1010,9,5261,1,-0.874835,52.1377,2.69493,52.837,-0.660497
block_1,1011,9,5262,1,-0.879396,52.0874,2.73933,52.8099,-0.660498
block_1,1012,9,5263,1,-0.738605,72.7794,2.71649,73.8229,-0.582751
block_1,1013,9,5264,1,-0.741853,72.7069,2.75982,73.7837,-0.582752
block_1,1014,9,5265,1,-0.884039,52.0364,2.78372,52.7823,-0.660499
block_1,1015,9,5266,1,-0.888766,51.9846,2.82812,52.7543,-0.6605
block_1,1016,9,5267,1,-1.09746,31.356,2.73838,31.7764,-0.739824
block_1,1017,9,5268,1,-1.10507,31.3259,2.78349,31.7601,-0.739825
block_1,1018,9,5269,1,-1.76234,10.5755,2.76018,10.7169,-0.8201
block_1,1019,9,5270,1,-1.78064,10.5654,2.80564,10.7114,-0.820101
block_1,1020,9,5271,1,-1.11281,31.2952,2.82859,31.7435,-0.739826
block_1,1021,9,5272,1,-1.1207,31.264,2.8737,31.7267,-0.739828
block_1,1022,9,5273,1,-1.79924,10.555,2.8511,10.7058,-0.820102
block_1,1023,9,5274,1,-1.81814,10.5446,2.89656,10.7001,-0.820104
block_1,1024,9,5275,1,-0.0149668,321.444,0.171449,326.359,-0.00212862
block_1,1025,9,5276,1,-0.0149528,321.113,0.174371,326.18,-0.00212863
block_1,1026,9,5277,1,-0.0263132,300.666,0.517637,305.264,-0.0118131
block_1,1027,9,5278,1,-0.0263244,300.357,0.525875,305.097,-0.0118132
block_1,1028,9,5279,1,-0.0149387,320.777,0.177288,325.999,-0.00212863
block_1,1029,9,5280,1,-0.0149243,320.437,0.180201,325.815,-0.00212863
block_1,1030,9,5281,1,-0.0263358,300.043,0.534109,304.927,-0.0118132
block_1,1031,9,5282,1,-0.0263475,299.724,0.542341,304.755,-0.0118132
block_1,1032,9,5283,1,-0.0477578,279.899,0.840756,284.179,-0.0306334
block_1,1033,9,5284,1,-0.0478207,279.611,0.853956,284.024,-0.0306334
block_1,1034,9,5285,1,-0.0787289,259.141,1.14081,263.104,-0.0579595
block_1,1035,9,5286,1,-0.0788709,258.874,1.15861,262.96,-0.0579596
block_1,1036,9,5287,1,-0.0478848,279.318,0.867153,283.866,-0.0306335
block_1,1037,9,5288,1,-0.04795,279.022,0.880348,283.705,-0.0306335
block_1,1038,9,5289,1,-0.0790155,258.604,1.17642,262.814,-0.0579597
block_1,1039,9,5290,1,-0.0791627,258.329,1.19422,262.665,-0.0579598
block_1,1040,9,5291,1,-0.0149098,320.091,0.183111,325.628,-0.00212863
block_1,1041,9,5292,1,-0.014895,319.74,0.186018,325.438,-0.00212864
block_1,1042,9,5293,1,-0.0263594,299.4,0.550569,304.58,-0.0118132
block_1,1043,9,5294,1,-0.0263715,299.072,0.558795,304.403,-0.0118132
block_1,1044,9,5295,1,-0.0148801,319.384,0.188921,325.246,-0.00212864
block_1,1045,9,5296,1,-0.0148649,319.023,0.191821,325.051,-0.00212864
block_1,1046,9,5297,1,-0.0263839,298.739,0.567018,304.223,-0.0118132
block_1,1047,9,5298,1,-0.0263966,298.401,0.575239,304.041,-0.0118133
block_1,1048,9,5299,1,-0.0480163,278.72,0.893541,283.543,-0.0306336
block_1,1049,9,5300,1,-0.0480838,278.415,0.906731,283.378,-0.0306336
block_1,1050,9,5301,1,-0.0793124,258.05,1.21203,262.515,-0.0579599
block_1,1051,9,5302,1,-0.0794646,257.767,1.22983,262.362,-0.05796
block_1,1052,9,5303,1,-0.0481525,278.105,0.91992,283.21,-0.0306337
block_1,1053,9,5304,1,-0.0482224,277.79,0.933107,283.04,-0.0306337
block_1,1054,9,5305,1,-0.0796195,257.48,1.24763,262.207,-0.0579601
block_1,1055,9,5306,1,-0.079777,257.188,1.26543,262.05,-0.0579602
block_1,1056,9,5307,1,-0.118688,238.392,1.41779,242.038,-0.0931619
block_1,1057,9,5308,1,-0.118938,238.147,1.43985,241.905,-0.093162
block_1,1058,9,5309,1,-0.167145,217.651,1.6717,220.98,-0.135611
block_1,1059,9,5310,1,-0.167535,217.427,1.69766,220.859,-0.135611
block_1,1060,9,5311,1,-0.119193,237.898,1.46191,241.771,-0.0931622
block_1,1061,9,5312,1,-0.119452,237.645,1.48397,241.634,-0.0931623
block_1,1062,9,5313,1,-0.167932,217.2,1.72362,220.736,-0.135611
block_1,1063,9,5314,1,-0.168335,216.969,1.74958,220.611,-0.135611
block_1,1064,9,5315,1,-0.223685,196.918,1.90254,199.93,-0.184676
block_1,1065,9,5316,1,-0.224251,196.715,1.93205,199.82,-0.184676
block_1,1066,9,5317,1,-0.288012,176.191,2.11032,178.886,-0.239729
block_1,1067,9,5318,1,-0.288795,176.01,2.14301,178.788,-0.239729
block_1,1068,9,5319,1,-0.224826,196.509,1.96155,199.709,-0.184677
block_1,1069,9,5320,1,-0.225412,196.3,1.99106,199.596,-0.184677
block_1,1070,9,5321,1,-0.289592,175.825,2.17571,178.688,-0.239729
block_1,1071,9,5322,1,-0.290403,175.638,2.20841,178.588,-0.23973
block_1,1072,9,5323,1,-0.119715,237.388,1.50603,241.496,-0.0931625
block_1,1073,9,5324,1,-0.119983,237.128,1.52808,241.355,-0.0931626
block_1,1074,9,5325,1,-0.168746,216.734,1.77554,220.485,-0.135612
block_1,1075,9,5326,1,-0.169164,216.497,1.8015,220.357,-0.135612
block_1,1076,9,5327,1,-0.120256,236.863,1.55014,241.213,-0.0931628
block_1,1077,9,5328,1,-0.120533,236.595,1.57219,241.068,-0.093163
block_1,1078,9,5329,1,-0.169589,216.255,1.82745,220.226,-0.135612
block_1,1079,9,5330,1,-0.170021,216.011,1.85341,220.094,-0.135612
block_1,1080,9,5331,1,-0.226007,196.088,2.02056,199.482,-0.184677
block_1,1081,9,5332,1,-0.226613,195.873,2.05007,199.365,-0.184678
block_1,1082,9,5333,1,-0.291228,175.449,2.24111,178.485,-0.23973
block_1,1083,9,5334,1,-0.292068,175.256,2.2738,178.381,-0.23973
block_1,1084,9,5335,1,-0.227229,195.655,2.07958,199.248,-0.184678
block_1,1085,9,5336,1,-0.227855,195.433,2.10908,199.128,-0.184678
block_1,1086,9,5337,1,-0.292921,175.061,2.3065,178.276,-0.239731
block_1,1087,9,5338,1,-0.293788,174.863,2.3392,178.169,-0.239731
block_1,1088,9,5339,1,-0.0148495,318.657,0.194718,324.853,-0.00212864
block_1,1089,9,5340,1,-0.014834,318.286,0.197612,324.653,-0.00212865
block_1,1090,9,5341,1,-0.0264095,298.059,0.583457,303.856,-0.0118133
block_1,1091,9,5342,1,-0.0264226,297.712,0.591673,303.668,-0.0118133
block_1,1092,9,5343,1,-0.0148182,317.909,0.200504,324.45,-0.00212865
block_1,1093,9,5344,1,-0.0148022,317.528,0.203392,324.244,-0.00212865
block_1,1094,9,5345,1,-0.026436,297.36,0.599887,303.478,-0.0118133
block_1,1095,9,5346,1,-0.0264497,297.003,0.608098,303.286,-0.0118133
block_1,1096,9,5347,1,-0.0482935,277.471,0.946292,282.868,-0.0306338
block_1,1097,9,5348,1,-0.0483658,277.148,0.959475,282.694,-0.0306338
block_1,1098,9,5349,1,-0.0799372,256.893,1.28322,261.89,-0.0579603
block_1,1099,9,5350,1,-0.0801,256.594,1.30102,261.729,-0.0579604
block_1,1100,9,5351,1,-0.0484393,276.82,0.972656,282.517,-0.0306339
block_1,1101,9,5352,1,-0.0485141,276.488,0.985836,282.338,-0.0306339
block_1,1102,9,5353,1,-0.0802654,256.29,1.31881,261.565,-0.0579605
block_1,1103,9,5354,1,-0.0804336,255.983,1.33661,261.399,-0.0579606
block_1,1104,9,5355,1,-0.014786,317.142,0.206279,324.036,-0.00212866
block_1,1105,9,5356,1,-0.0147696,316.75,0.209162,323.825,-0.00212866
block_1,1106,9,5357,1,-0.0264637,296.642,0.616308,303.091,-0.0118134
block_1,1107,9,5358,1,-0.0264779,296.275,0.624516,302.893,-0.0118134
block_1,1108,9,5359,1,-0.0147531,316.354,0.212044,323.611,-0.00212866
block_1,1109,9,5360,1,-0.0147363,315.953,0.214923,323.394,-0.00212867
block_1,1110,9,5361,1,-0.0264924,295.905,0.632721,302.693,-0.0118134
block_1,1111,9,5362,1,-0.0265072,295.529,0.640925,302.49,-0.0118134
block_1,1112,9,5363,1,-0.04859,276.152,0.999014,282.156,-0.030634
block_1,1113,9,5364,1,-0.0486673,275.811,1.01219,281.972,-0.030634
block_1,1114,9,5365,1,-0.0806045,255.671,1.3544,261.231,-0.0579607
block_1,1115,9,5366,1,-0.0807781,255.356,1.37219,261.06,-0.0579608
block_1,1116,9,5367,1,-0.0487457,275.465,1.02537,281.786,-0.0306341
block_1,1117,9,5368,1,-0.0488255,275.116,1.03854,281.597,-0.0306342
block_1,1118,9,5369,1,-0.0809545,255.036,1.38998,260.888,-0.0579609
block_1,1119,9,5370,1,-0.0811337,254.712,1.40777,260.713,-0.057961
block_1,1120,9,5371,1,-0.120815,236.324,1.59425,240.921,-0.0931631
block_1,1121,9,5372,1,-0.121101,236.048,1.6163,240.773,-0.0931633
block_1,1122,9,5373,1,-0.170459,215.763,1.87937,219.96,-0.135612
block_1,1123,9,5374,1,-0.170906,215.511,1.90533,219.825,-0.135613
block_1,1124,9,5375,1,-0.121393,235.769,1.63835,240.622,-0.0931635
block_1,1125,9,5376,1,-0.121688,235.486,1.66041,240.469,-0.0931636
block_1,1126,9,5377,1,-0.171359,215.256,1.93128,219.687,-0.135613
block_1,1127,9,5378,1,-0.17182,214.998,1.95724,219.548,-0.135613
block_1,1128,9,5379,1,-0.228491,195.209,2.13859,199.007,-0.184679
block_1,1129,9,5380,1,-0.229138,194.981,2.16809,198.884,-0.184679
block_1,1130,9,5381,1,-0.29467,174.662,2.3719,178.06,-0.239732
block_1,1131,9,5382,1,-0.295566,174.458,2.4046,177.95,-0.239732
block_1,1132,9,5383,1,-0.229795,194.751,2.1976,198.76,-0.184679
block_1,1133,9,5384,1,-0.230463,194.517,2.2271,198.634,-0.18468
block_1,1134,9,5385,1,-0.296476,174.252,2.4373,177.839,-0.239733
block_1,1135,9,5386,1,-0.297402,174.043,2.47,177.726,-0.239733
block_1,1136,9,5387,1,-0.121989,235.2,1.68246,240.314,-0.0931638
block_1,1137,9,5388,1,-0.122294,234.909,1.70451,240.158,-0.093164
block_1,1138,9,5389,1,-0.172288,214.736,1.98319,219.406,-0.135613
block_1,1139,9,5390,1,-0.172763,214.471,2.00915,219.263,-0.135614
block_1,1140,9,5391,1,-0.122604,234.615,1.72656,239.999,-0.0931641
block_1,1141,9,5392,1,-0.122919,234.317,1.74861,239.838,-0.0931643
block_1,1142,9,5393,1,-0.173246,214.202,2.03511,219.118,-0.135614
block_1,1143,9,5394,1,-0.173737,213.93,2.06106,218.972,-0.135614
block_1,1144,9,5395,1,-0.231142,194.28,2.25661,198.506,-0.18468
block_1,1145,9,5396,1,-0.231831,194.04,2.28611,198.376,-0.18468
block_1,1146,9,5397,1,-0.298341,173.831,2.5027,177.612,-0.239733
block_1,1147,9,5398,1,-0.299296,173.616,2.5354,177.496,-0.239734
block_1,1148,9,5399,1,-0.232531,193.797,2.31562,198.245,-0.184681
block_1,1149,9,5400,1,-0.233242,193.551,2.34512,198.112,-0.184681
block_1,1150,9,5401,1,-0.300265,173.399,2.5681,177.379,-0.239734
block_1,1151,9,5402,1,-0.30125,173.178,2.6008,177.26,-0.239735
block_1,1152,9,5403,1,-0.360023,155.47,2.29502,157.848,-0.300138
block_1,1153,9,5404,1,-0.361078,155.31,2.33056,157.762,-0.300139
block_1,1154,9,5405,1,-0.439965,134.755,2.45666,136.816,-0.365275
block_1,1155,9,5406,1,-0.441363,134.616,2.49467,136.741,-0.365276
block_1,1156,9,5407,1,-0.362152,155.148,2.36609,157.674,-0.300139
block_1,1157,9,5408,1,-0.363244,154.983,2.40162,157.585,-0.300139
block_1,1158,9,5409,1,-0.442785,134.475,2.53269,136.665,-0.365276
block_1,1159,9,5410,1,-0.444233,134.332,2.57071,136.588,-0.365277
block_1,1160,9,5411,1,-0.528737,114.044,2.59523,115.788,-0.434509
block_1,1161,9,5412,1,-0.530582,113.927,2.63537,115.725,-0.43451
block_1,1162,9,5413,1,-0.628614,93.337,2.71073,94.7645,-0.507212
block_1,1163,9,5414,1,-0.631071,93.2409,2.75264,94.7126,-0.507213
block_1,1164,9,5415,1,-0.53246,113.807,2.67551,115.66,-0.434511
block_1,1165,9,5416,1,-0.534369,113.686,2.71566,115.595,-0.434512
block_1,1166,9,5417,1,-0.633571,93.1433,2.79456,94.6599,-0.507213
block_1,1167,9,5418,1,-0.636114,93.0443,2.83648,94.6064,-0.507214
block_1,1168,9,5419,1,-0.364354,154.815,2.43716,157.495,-0.30014
block_1,1169,9,5420,1,-0.365484,154.645,2.4727,157.403,-0.30014
block_1,1170,9,5421,1,-0.445705,134.187,2.60873,136.509,-0.365277
block_1,1171,9,5422,1,-0.447202,134.04,2.64675,136.43,-0.365278
block_1,1172,9,5423,1,-0.366633,154.473,2.50823,157.31,-0.300141
block_1,1173,9,5424,1,-0.3678,154.298,2.54377,157.215,-0.300141
block_1,1174,9,5425,1,-0.448724,133.89,2.68477,136.349,-0.365278
block_1,1175,9,5426,1,-0.450271,133.739,2.72279,136.267,-0.365279
block_1,1176,9,5427,1,-0.536312,113.563,2.75581,115.529,-0.434512
block_1,1177,9,5428,1,-0.538287,113.439,2.79596,115.462,-0.434513
block_1,1178,9,5429,1,-0.638701,92.9437,2.8784,94.5522,-0.507215
block_1,1179,9,5430,1,-0.641331,92.8417,2.92033,94.4971,-0.507216
block_1,1180,9,5431,1,-0.540296,113.312,2.83611,115.393,-0.434514
block_1,1181,9,5432,1,-0.542338,113.184,2.87626,115.324,-0.434514
block_1,1182,9,5433,1,-0.644005,92.7383,2.96225,94.4412,-0.507217
block_1,1183,9,5434,1,-0.646724,92.6333,3.00418,94.3846,-0.507218
block_1,1184,9,5435,1,-0.745158,72.6333,2.80316,73.744,-0.582752
block_1,1185,9,5436,1,-0.748522,72.5585,2.84649,73.7036,-0.582753
block_1,1186,9,5437,1,-0.893576,51.9319,2.87252,52.7259,-0.660501
block_1,1187,9,5438,1,-0.898471,51.8785,2.91692,52.697,-0.660502
block_1,1188,9,5439,1,-0.751945,72.4825,2.88983,73.6626,-0.582754
block_1,1189,9,5440,1,-0.755427,72.4054,2.93317,73.621,-0.582755
block_1,1190,9,5441,1,-0.90345,51.8242,2.96132,52.6677,-0.660503
block_1,1191,9,5442,1,-0.908515,51.7691,3.00573,52.638,-0.660504
block_1,1192,9,5443,1,-1.12872,31.2324,2.91881,31.7096,-0.739829
block_1,1193,9,5444,1,-1.13688,31.2003,2.96392,31.6923,-0.73983
block_1,1194,9,5445,1,-1.83733,10.5339,2.94203,10.6944,-0.820105
block_1,1195,9,5446,1,-1.85683,10.5231,2.9875,10.6886,-0.820106
block_1,1196,9,5447,1,-1.14517,31.1676,3.00903,31.6746,-0.739831
block_1,1197,9,5448,1,-1.15361,31.1345,3.05415,31.6568,-0.739832
block_1,1198,9,5449,1,-1.87662,10.5121,3.03297,10.6826,-0.820107
block_1,1199,9,5450,1,-1.89671,10.501,3.07844,10.6766,-0.820109
block_1,1200,9,5451,1,-0.758968,72.3272,2.97651,73.5787,-0.582756
block_1,1201,9,5452,1,-0.762568,72.2478,3.01986,73.5359,-0.582757
block_1,1202,9,5453,1,-0.913665,51.7132,3.05013,52.6078,-0.660505
block_1,1203,9,5454,1,-0.918902,51.6564,3.09454,52.5772,-0.660506
block_1,1204,9,5455,1,-0.766229,72.1673,3.0632,73.4924,-0.582758
block_1,1205,9,5456,1,-0.76995,72.0857,3.10655,73.4483,-0.582759
block_1,1206,9,5457,1,-0.924225,51.5989,3.13895,52.5461,-0.660507
block_1,1207,9,5458,1,-0.929635,51.5405,3.18337,52.5146,-0.660508
block_1,1208,9,5459,1,-1.16218,31.1009,3.09927,31.6386,-0.739833
block_1,1209,9,5460,1,-1.1709,31.0668,3.14439,31.6202,-0.739834
block_1,1210,9,5461,1,-1.9171,10.4897,3.12392,10.6705,-0.82011
block_1,1211,9,5462,1,-1.93778,10.4782,3.1694,10.6643,-0.820111
block_1,1212,9,5463,1,-1.17975,31.0322,3.18951,31.6015,-0.739835
block_1,1213,9,5464,1,-1.18875,30.9971,3.23464,31.5826,-0.739837
block_1,1214,9,5465,1,-1.95875,10.4666,3.21488,10.6581,-0.820112
block_1,1215,9,5466,1,-1.98002,10.4548,3.26036,10.6517,-0.820114
block_1,1216,9,5467,1,-0.368987,154.121,2.57931,157.12,-0.300142
block_1,1217,9,5468,1,-0.370194,153.941,2.61485,157.023,-0.300142
block_1,1218,9,5469,1,-0.451844,133.585,2.76081,136.185,-0.36528
block_1,1219,9,5470,1,-0.453442,133.429,2.79883,136.1,-0.36528
block_1,1220,9,5471,1,-0.371419,153.759,2.65039,156.924,-0.300143
block_1,1221,9,5472,1,-0.372665,153.575,2.68593,156.825,-0.300144
block_1,1222,9,5473,1,-0.455066,133.272,2.83686,136.015,-0.365281
block_1,1223,9,5474,1,-0.456716,133.112,2.87488,135.929,-0.365282
block_1,1224,9,5475,1,-0.544413,113.054,2.91641,115.254,-0.434515
block_1,1225,9,5476,1,-0.546522,112.922,2.95656,115.183,-0.434516
block_1,1226,9,5477,1,-0.649487,92.5269,3.04611,94.3272,-0.507218
block_1,1227,9,5478,1,-0.652295,92.419,3.08803,94.269,-0.507219
block_1,1228,9,5479,1,-0.548665,112.789,2.99672,115.111,-0.434517
block_1,1229,9,5480,1,-0.550842,112.653,3.03687,115.038,-0.434517
block_1,1230,9,5481,1,-0.655148,92.3097,3.12997,94.2099,-0.50722
block_1,1231,9,5482,1,-0.658046,92.1989,3.1719,94.1501,-0.507221
block_1,1232,9,5483,1,-0.37393,153.388,2.72147,156.724,-0.300144
block_1,1233,9,5484,1,-0.375215,153.198,2.75701,156.622,-0.300145
block_1,1234,9,5485,1,-0.458393,132.95,2.91291,135.841,-0.365282
block_1,1235,9,5486,1,-0.460095,132.785,2.95094,135.753,-0.365283
block_1,1236,9,5487,1,-0.37652,153.006,2.79255,156.518,-0.300145
block_1,1237,9,5488,1,-0.377845,152.812,2.82809,156.413,-0.300146
block_1,1238,9,5489,1,-0.461824,132.619,2.98897,135.663,-0.365284
block_1,1239,9,5490,1,-0.46358,132.45,3.02699,135.572,-0.365284
block_1,1240,9,5491,1,-0.553053,112.516,3.07703,114.964,-0.434518
block_1,1241,9,5492,1,-0.5553,112.377,3.11719,114.889,-0.434519
block_1,1242,9,5493,1,-0.66099,92.0866,3.21383,94.0896,-0.507222
block_1,1243,9,5494,1,-0.66398,91.9729,3.25576,94.0282,-0.507223
block_1,1244,9,5495,1,-0.557581,112.236,3.15735,114.813,-0.43452
block_1,1245,9,5496,1,-0.559897,112.094,3.19751,114.736,-0.434521
block_1,1246,9,5497,1,-0.667016,91.8576,3.2977,93.966,-0.507224
block_1,1247,9,5498,1,-0.670099,91.7409,3.33963,93.9031,-0.507225
block_1,1248,9,5499,1,-0.773731,72.0029,3.1499,73.4037,-0.58276
block_1,1249,9,5500,1,-0.777574,71.919,3.19325,73.3584,-0.582761
block_1,1250,9,5501,1,-0.935133,51.4813,3.22778,52.4826,-0.66051
block_1,1251,9,5502,1,-0.940718,51.4213,3.2722,52.4503,-0.660511
block_1,1252,9,5503,1,-0.781478,71.8339,3.2366,73.3124,-0.582762
block_1,1253,9,5504,1,-0.785444,71.7476,3.27995,73.2659,-0.582763
block_1,1254,9,5505,1,-0.946393,51.3605,3.31662,52.4174,-0.660512
block_1,1255,9,5506,1,-0.952156,51.2989,3.36103,52.3842,-0.660513
block_1,1256,9,5507,1,-1.19789,30.9616,3.27976,31.5634,-0.739838
block_1,1257,9,5508,1,-1.20717,30.9255,3.32489,31.5439,-0.739839
block_1,1258,9,5509,1,-2.00158,10.4428,3.30584,10.6452,-0.820115
block_1,1259,9,5510,1,-2.02343,10.4307,3.35133,10.6387,-0.820116
block_1,1260,9,5511,1,-1.2166,30.8889,3.37002,31.5242,-0.73984
block_1,1261,9,5512,1,-1.22617,30.8519,3.41515,31.5042,-0.739842
block_1,1262,9,5513,1,-2.04557,10.4184,3.39681,10.632,-0.820118
block_1,1263,9,5514,1,-2.068,10.406,3.4423,10.6253,-0.820119
block_1,1264,9,5515,1,-0.789473,71.6603,3.3233,73.2188,-0.582764
block_1,1265,9,5516,1,-0.793564,71.5718,3.36666,73.171,-0.582765
block_1,1266,9,5517,1,-0.95801,51.2364,3.40546,52.3505,-0.660514
block_1,1267,9,5518,1,-0.963953,51.1732,3.44988,52.3163,-0.660515
block_1,1268,9,5519,1,-0.797718,71.4821,3.41002,73.1226,-0.582766
block_1,1269,9,5520,1,-0.801935,71.3913,3.45337,73.0737,-0.582767
block_1,1270,9,5521,1,-0.969987,51.1091,3.4943,52.2818,-0.660516
block_1,1271,9,5522,1,-0.976113,51.0442,3.53873,52.2467,-0.660518
block_1,1272,9,5523,1,-1.23588,30.8144,3.46028,31.484,-0.739843
block_1,1273,9,5524,1,-1.24574,30.7763,3.50542,31.4634,-0.739844
block_1,1274,9,5525,1,-2.09072,10.3933,3.48779,10.6185,-0.820121
block_1,1275,9,5526,1,-2.11373,10.3806,3.53328,10.6116,-0.820122
block_1,1276,9,5527,1,-1.25575,30.7378,3.55055,31.4427,-0.739845
block_1,1277,9,5528,1,-1.2659,30.6988,3.59569,31.4216,-0.739847
block_1,1278,9,5529,1,-2.13702,10.3676,3.57877,10.6046,-0.820123
block_1,1279,9,5530,1,-2.16059,10.3545,3.62427,10.5975,-0.820125
block_1,1280,9,5531,1,-0.0147193,315.546,0.2178,323.175,-0.00212867
block_1,1281,9,5532,1,-0.0147021,315.134,0.220675,322.953,-0.00212868
block_1,1282,9,5533,1,-0.0265223,295.149,0.649127,302.285,-0.0118135
block_1,1283,9,5534,1,-0.0265377,294.764,0.657328,302.077,-0.0118135
block_1,1284,9,5535,1,-0.0146847,314.718,0.223547,322.728,-0.00212868
block_1,1285,9,5536,1,-0.0146671,314.296,0.226418,322.5,-0.00212868
block_1,1286,9,5537,1,-0.0265533,294.374,0.665527,301.867,-0.0118135
block_1,1287,9,5538,1,-0.0265693,293.979,0.673724,301.654,-0.0118135
block_1,1288,9,5539,1,-0.0489065,274.762,1.05171,281.406,-0.0306342
block_1,1289,9,5540,1,-0.0489889,274.403,1.06488,281.212,-0.0306343
block_1,1290,9,5541,1,-0.0813156,254.384,1.42556,260.536,-0.0579612
block_1,1291,9,5542,1,-0.0815004,254.052,1.44334,260.357,-0.0579613
block_1,1292,9,5543,1,-0.0490725,274.04,1.07805,281.017,-0.0306343
block_1,1293,9,5544,1,-0.0491574,273.673,1.09122,280.818,-0.0306344
block_1,1294,9,5545,1,-0.081688,253.716,1.46113,260.176,-0.0579614
block_1,1295,9,5546,1,-0.0818785,253.376,1.47891,259.992,-0.0579615
block_1,1296,9,5547,1,-0.0146494,313.869,0.229287,322.27,-0.00212869
block_1,1297,9,5548,1,-0.0146314,313.437,0.232154,322.037,-0.00212869
block_1,1298,9,5549,1,-0.0265855,293.58,0.68192,301.439,-0.0118136
block_1,1299,9,5550,1,-0.0266021,293.176,0.690114,301.221,-0.0118136
block_1,1300,9,5551,1,-0.0146132,313.001,0.23502,321.801,-0.0021287
block_1,1301,9,5552,1,-0.0145948,312.559,0.237883,321.563,-0.0021287
block_1,1302,9,5553,1,-0.026619,292.767,0.698307,301,-0.0118136
block_1,1303,9,5554,1,-0.0266362,292.354,0.706499,300.777,-0.0118136
block_1,1304,9,5555,1,-0.0492437,273.301,1.10439,280.618,-0.0306345
block_1,1305,9,5556,1,-0.0493313,272.925,1.11756,280.415,-0.0306345
block_1,1306,9,5557,1,-0.0820719,253.032,1.4967,259.807,-0.0579616
block_1,1307,9,5558,1,-0.0822682,252.683,1.51448,259.619,-0.0579617
block_1,1308,9,5559,1,-0.0494203,272.544,1.13072,280.21,-0.0306346
block_1,1309,9,5560,1,-0.0495106,272.159,1.14389,280.002,-0.0306346
block_1,1310,9,5561,1,-0.0824675,252.331,1.53227,259.429,-0.0579619
block_1,1311,9,5562,1,-0.0826697,251.975,1.55005,259.236,-0.057962
block_1,1312,9,5563,1,-0.123239,234.015,1.77066,239.675,-0.0931645
block_1,1313,9,5564,1,-0.123564,233.71,1.7927,239.511,-0.0931647
block_1,1314,9,5565,1,-0.174235,213.655,2.08701,218.823,-0.135614
block_1,1315,9,5566,1,-0.17474,213.376,2.11297,218.672,-0.135615
block_1,1316,9,5567,1,-0.123894,233.401,1.81475,239.344,-0.0931649
block_1,1317,9,5568,1,-0.124228,233.088,1.8368,239.175,-0.0931651
block_1,1318,9,5569,1,-0.175254,213.094,2.13892,218.52,-0.135615
block_1,1319,9,5570,1,-0.175775,212.808,2.16488,218.366,-0.135615
block_1,1320,9,5571,1,-0.233963,193.302,2.37463,197.978,-0.184681
block_1,1321,9,5572,1,-0.234696,193.049,2.40414,197.842,-0.184682
block_1,1322,9,5573,1,-0.30225,172.955,2.6335,177.139,-0.239735
block_1,1323,9,5574,1,-0.303264,172.73,2.66621,177.018,-0.239736
block_1,1324,9,5575,1,-0.23544,192.794,2.43364,197.704,-0.184682
block_1,1325,9,5576,1,-0.236195,192.535,2.46315,197.564,-0.184682
block_1,1326,9,5577,1,-0.304294,172.501,2.69891,176.894,-0.239736
block_1,1327,9,5578,1,-0.30534,172.27,2.73161,176.769,-0.239737
block_1,1328,9,5579,1,-0.124568,232.771,1.85885,239.004,-0.0931652
block_1,1329,9,5580,1,-0.124913,232.451,1.88089,238.831,-0.0931654
block_1,1330,9,5581,1,-0.176303,212.519,2.19083,218.21,-0.135616
block_1,1331,9,5582,1,-0.17684,212.226,2.21678,218.052,-0.135616
block_1,1332,9,5583,1,-0.125263,232.127,1.90294,238.656,-0.0931656
block_1,1333,9,5584,1,-0.125618,231.799,1.92498,238.48,-0.0931658
block_1,1334,9,5585,1,-0.177385,211.93,2.24274,217.892,-0.135616
block_1,1335,9,5586,1,-0.177937,211.631,2.26869,217.731,-0.135616
block_1,1336,9,5587,1,-0.236961,192.274,2.49265,197.423,-0.184683
block_1,1337,9,5588,1,-0.237739,192.009,2.52216,197.28,-0.184683
block_1,1338,9,5589,1,-0.306401,172.035,2.76431,176.643,-0.239737
block_1,1339,9,5590,1,-0.307478,171.799,2.79702,176.515,-0.239738
block_1,1340,9,5591,1,-0.238528,191.741,2.55166,197.136,-0.184684
block_1,1341,9,5592,1,-0.239328,191.47,2.58117,196.99,-0.184684
block_1,1342,9,5593,1,-0.30857,171.559,2.82972,176.386,-0.239738
block_1,1343,9,5594,1,-0.309679,171.316,2.86242,176.255,-0.239739
block_1,1344,9,5595,1,-0.0145763,312.112,0.240745,321.322,-0.0021287
block_1,1345,9,5596,1,-0.0145575,311.66,0.243606,321.078,-0.00212871
block_1,1346,9,5597,1,-0.0266537,291.936,0.714689,300.552,-0.0118136
block_1,1347,9,5598,1,-0.0266715,291.513,0.722878,300.324,-0.0118137
block_1,1348,9,5599,1,-0.0145386,311.202,0.246465,320.831,-0.00212871
block_1,1349,9,5600,1,-0.0145194,310.74,0.249322,320.582,-0.00212872
block_1,1350,9,5601,1,-0.0266897,291.085,0.731066,300.093,-0.0118137
block_1,1351,9,5602,1,-0.0267082,290.653,0.739253,299.86,-0.0118137
block_1,1352,9,5603,1,-0.0496023,271.77,1.15705,279.792,-0.0306347
block_1,1353,9,5604,1,-0.0496954,271.376,1.17021,279.58,-0.0306348
block_1,1354,9,5605,1,-0.0828749,251.614,1.56783,259.042,-0.0579621
block_1,1355,9,5606,1,-0.0830831,251.249,1.58561,258.845,-0.0579622
block_1,1356,9,5607,1,-0.0497899,270.978,1.18338,279.365,-0.0306348
block_1,1357,9,5608,1,-0.0498858,270.576,1.19654,279.148,-0.0306349
block_1,1358,9,5609,1,-0.0832944,250.881,1.60339,258.646,-0.0579624
block_1,1359,9,5610,1,-0.0835087,250.508,1.62117,258.445,-0.0579625
block_1,1360,9,5611,1,-0.0145001,310.273,0.252178,320.33,-0.00212872
block_1,1361,9,5612,1,-0.0144805,309.801,0.255033,320.075,-0.00212873
block_1,1362,9,5613,1,-0.026727,290.216,0.747438,299.624,-0.0118138
block_1,1363,9,5614,1,-0.0267462,289.774,0.755623,299.386,-0.0118138
block_1,1364,9,5615,1,-0.0144608,309.323,0.257886,319.818,-0.00212873
block_1,1365,9,5616,1,-0.0144409,308.841,0.260738,319.558,-0.00212874
block_1,1366,9,5617,1,-0.0267657,289.327,0.763806,299.145,-0.0118138
block_1,1367,9,5618,1,-0.0267856,288.876,0.771989,298.902,-0.0118138
block_1,1368,9,5619,1,-0.0499831,270.169,1.2097,278.928,-0.030635
block_1,1369,9,5620,1,-0.0500819,269.757,1.22286,278.706,-0.0306351
block_1,1370,9,5621,1,-0.0837262,250.131,1.63895,258.242,-0.0579626
block_1,1371,9,5622,1,-0.0839467,249.75,1.65673,258.037,-0.0579627
block_1,1372,9,5623,1,-0.0501821,269.341,1.23601,278.482,-0.0306351
block_1,1373,9,5624,1,-0.0502838,268.921,1.24917,278.256,-0.0306352
block_1,1374,9,5625,1,-0.0841704,249.365,1.67451,257.829,-0.0579629
block_1,1375,9,5626,1,-0.0843973,248.976,1.69229,257.619,-0.057963
block_1,1376,9,5627,1,-0.125978,231.467,1.94703,238.301,-0.093166
block_1,1377,9,5628,1,-0.126344,231.131,1.96907,238.12,-0.0931662
block_1,1378,9,5629,1,-0.178498,211.328,2.29464,217.568,-0.135617
block_1,1379,9,5630,1,-0.179066,211.021,2.3206,217.402,-0.135617
block_1,1380,9,5631,1,-0.126714,230.792,1.99112,237.937,-0.0931664
block_1,1381,9,5632,1,-0.127091,230.449,2.01316,237.752,-0.0931666
block_1,1382,9,5633,1,-0.179643,210.712,2.34655,217.235,-0.135617
block_1,1383,9,5634,1,-0.180228,210.399,2.3725,217.066,-0.135618
block_1,1384,9,5635,1,-0.24014,191.196,2.61068,196.842,-0.184684
block_1,1385,9,5636,1,-0.240964,190.919,2.64018,196.692,-0.184685
block_1,1386,9,5637,1,-0.310803,171.071,2.89513,176.123,-0.239739
block_1,1387,9,5638,1,-0.311944,170.823,2.92783,175.989,-0.23974
block_1,1388,9,5639,1,-0.2418,190.639,2.66969,196.541,-0.184685
block_1,1389,9,5640,1,-0.242647,190.355,2.69919,196.389,-0.184685
block_1,1390,9,5641,1,-0.313101,170.572,2.96053,175.854,-0.23974
block_1,1391,9,5642,1,-0.314275,170.319,2.99324,175.717,-0.239741
block_1,1392,9,5643,1,-0.127472,230.102,2.0352,237.565,-0.0931668
block_1,1393,9,5644,1,-0.127859,229.752,2.05725,237.376,-0.0931671
block_1,1394,9,5645,1,-0.180822,210.082,2.39845,216.896,-0.135618
block_1,1395,9,5646,1,-0.181423,209.762,2.4244,216.723,-0.135618
block_1,1396,9,5647,1,-0.128251,229.398,2.07929,237.185,-0.0931673
block_1,1397,9,5648,1,-0.128649,229.04,2.10133,236.992,-0.0931675
block_1,1398,9,5649,1,-0.182034,209.438,2.45036,216.549,-0.135618
block_1,1399,9,5650,1,-0.182652,209.112,2.47631,216.372,-0.135619
block_1,1400,9,5651,1,-0.243507,190.069,2.7287,196.234,-0.184686
block_1,1401,9,5652,1,-0.244378,189.779,2.7582,196.078,-0.184686
block_1,1402,9,5653,1,-0.315465,170.063,3.02594,175.579,-0.239741
block_1,1403,9,5654,1,-0.316671,169.803,3.05865,175.439,-0.239742
block_1,1404,9,5655,1,-0.245262,189.487,2.78771,195.92,-0.184687
block_1,1405,9,5656,1,-0.246158,189.191,2.81722,195.761,-0.184687
block_1,1406,9,5657,1,-0.317895,169.542,3.09135,175.298,-0.239742
block_1,1407,9,5658,1,-0.319135,169.277,3.12406,175.155,-0.239743
block_1,1408,9,5659,1,-0.379191,152.615,2.86363,156.307,-0.300146
block_1,1409,9,5660,1,-0.380556,152.416,2.89918,156.2,-0.300147
block_1,1410,9,5661,1,-0.465362,132.28,3.06502,135.48,-0.365285
block_1,1411,9,5662,1,-0.467172,132.107,3.10305,135.387,-0.365286
block_1,1412,9,5663,1,-0.381943,152.214,2.93472,156.091,-0.300147
block_1,1413,9,5664,1,-0.38335,152.01,2.97027,155.981,-0.300148
block_1,1414,9,5665,1,-0.469008,131.932,3.14108,135.293,-0.365286
block_1,1415,9,5666,1,-0.470873,131.755,3.17911,135.197,-0.365287
block_1,1416,9,5667,1,-0.562248,111.949,3.23767,114.658,-0.434521
block_1,1417,9,5668,1,-0.564635,111.803,3.27783,114.579,-0.434522
block_1,1418,9,5669,1,-0.673229,91.6228,3.38157,93.8393,-0.507226
block_1,1419,9,5670,1,-0.676406,91.5032,3.42351,93.7748,-0.507227
block_1,1420,9,5671,1,-0.567058,111.655,3.31799,114.499,-0.434523
block_1,1421,9,5672,1,-0.569517,111.505,3.35816,114.418,-0.434524
block_1,1422,9,5673,1,-0.679631,91.3821,3.46545,93.7094,-0.507228
block_1,1423,9,5674,1,-0.682903,91.2595,3.50739,93.6433,-0.507229
block_1,1424,9,5675,1,-0.384778,151.803,3.00581,155.869,-0.300149
block_1,1425,9,5676,1,-0.386227,151.594,3.04136,155.756,-0.300149
block_1,1426,9,5677,1,-0.472764,131.576,3.21715,135.101,-0.365288
block_1,1427,9,5678,1,-0.474684,131.395,3.25518,135.003,-0.365289
block_1,1428,9,5679,1,-0.387698,151.383,3.0769,155.642,-0.30015
block_1,1429,9,5680,1,-0.389189,151.169,3.11245,155.527,-0.300151
block_1,1430,9,5681,1,-0.476632,131.212,3.29321,134.904,-0.365289
block_1,1431,9,5682,1,-0.478608,131.026,3.33125,134.804,-0.36529
block_1,1432,9,5683,1,-0.572013,111.354,3.39832,114.337,-0.434525
block_1,1433,9,5684,1,-0.574545,111.201,3.43848,114.254,-0.434526
block_1,1434,9,5685,1,-0.686224,91.1355,3.54933,93.5764,-0.50723
block_1,1435,9,5686,1,-0.689594,91.0099,3.59127,93.5087,-0.507231
block_1,1436,9,5687,1,-0.577114,111.045,3.47865,114.17,-0.434526
block_1,1437,9,5688,1,-0.57972,110.888,3.51882,114.085,-0.434527
block_1,1438,9,5689,1,-0.693012,90.883,3.63322,93.4402,-0.507232
block_1,1439,9,5690,1,-0.69648,90.7545,3.67516,93.3709,-0.507233
block_1,1440,9,5691,1,-0.806217,71.2994,3.49673,73.024,-0.582768
block_1,1441,9,5692,1,-0.810563,71.2063,3.54009,72.9738,-0.582769
block_1,1442,9,5693,1,-0.982331,50.9785,3.58315,52.2113,-0.660519
block_1,1443,9,5694,1,-0.988641,50.9119,3.62758,52.1754,-0.66052
block_1,1444,9,5695,1,-0.814973,71.1121,3.58345,72.923,-0.58277
block_1,1445,9,5696,1,-0.819449,71.0167,3.62682,72.8716,-0.582771
block_1,1446,9,5697,1,-0.995044,50.8446,3.67201,52.139,-0.660521
block_1,1447,9,5698,1,-1.00154,50.7764,3.71644,52.1023,-0.660523
block_1,1448,9,5699,1,-1.2762,30.6593,3.64083,31.4003,-0.739848
block_1,1449,9,5700,1,-1.28665,30.6193,3.68597,31.3787,-0.73985
block_1,1450,9,5701,1,-2.18445,10.3412,3.66976,10.5904,-0.820126
block_1,1451,9,5702,1,-2.20859,10.3278,3.71526,10.5831,-0.820128
block_1,1452,9,5703,1,-1.29725,30.5788,3.73111,31.3569,-0.739851
block_1,1453,9,5704,1,-1.308,30.5378,3.77625,31.3348,-0.739852
block_1,1454,9,5705,1,-2.23302,10.3141,3.76075,10.5758,-0.820129
block_1,1455,9,5706,1,-2.25772,10.3004,3.80625,10.5683,-0.820131
block_1,1456,9,5707,1,-0.823991,70.9202,3.67018,72.8195,-0.582772
block_1,1457,9,5708,1,-0.828599,70.8225,3.71354,72.7668,-0.582774
block_1,1458,9,5709,1,-1.00813,50.7074,3.76087,52.0651,-0.660524
block_1,1459,9,5710,1,-1.01482,50.6376,3.8053,52.0274,-0.660525
block_1,1460,9,5711,1,-0.833273,70.7237,3.75691,72.7135,-0.582775
block_1,1461,9,5712,1,-0.838015,70.6238,3.80027,72.6596,-0.582776
block_1,1462,9,5713,1,-1.0216,50.567,3.84973,51.9893,-0.660526
block_1,1463,9,5714,1,-1.02848,50.4955,3.89416,51.9508,-0.660528
block_1,1464,9,5715,1,-1.31889,30.4964,3.82139,31.3124,-0.739854
block_1,1465,9,5716,1,-1.32994,30.4544,3.86653,31.2898,-0.739855
block_1,1466,9,5717,1,-2.2827,10.2864,3.85175,10.5608,-0.820132
block_1,1467,9,5718,1,-2.30796,10.2723,3.89725,10.5532,-0.820134
block_1,1468,9,5719,1,-1.34115,30.412,3.91168,31.2669,-0.739857
block_1,1469,9,5720,1,-1.3525,30.369,3.95682,31.2437,-0.739858
block_1,1470,9,5721,1,-2.33349,10.258,3.94276,10.5455,-0.820136
block_1,1471,9,5722,1,-2.3593,10.2436,3.98826,10.5377,-0.820137
block_1,1472,9,5723,1,-0.390703,150.952,3.14799,155.41,-0.300151
block_1,1473,9,5724,1,-0.392238,150.733,3.18354,155.292,-0.300152
block_1,1474,9,5725,1,-0.480612,130.839,3.36928,134.703,-0.365291
block_1,1475,9,5726,1,-0.482645,130.649,3.40731,134.6,-0.365292
block_1,1476,9,5727,1,-0.393795,150.512,3.21909,155.173,-0.300152
block_1,1477,9,5728,1,-0.395374,150.288,3.25464,155.052,-0.300153
block_1,1478,9,5729,1,-0.484707,130.457,3.44535,134.497,-0.365292
block_1,1479,9,5730,1,-0.486799,130.263,3.48339,134.392,-0.365293
block_1,1480,9,5731,1,-0.582364,110.73,3.55898,114,-0.434528
block_1,1481,9,5732,1,-0.585045,110.569,3.59915,113.913,-0.434529
block_1,1482,9,5733,1,-0.699998,90.6246,3.7171,93.3009,-0.507234
block_1,1483,9,5734,1,-0.703566,90.4932,3.75905,93.23,-0.507235
block_1,1484,9,5735,1,-0.587765,110.407,3.63932,113.826,-0.43453
block_1,1485,9,5736,1,-0.590523,110.243,3.67949,113.737,-0.434531
block_1,1486,9,5737,1,-0.707184,90.3604,3.80099,93.1584,-0.507236
block_1,1487,9,5738,1,-0.710853,90.226,3.84294,93.0859,-0.507237
block_1,1488,9,5739,1,-0.396975,150.062,3.29018,154.93,-0.300154
block_1,1489,9,5740,1,-0.398599,149.834,3.32573,154.807,-0.300154
block_1,1490,9,5741,1,-0.488919,130.067,3.52142,134.287,-0.365294
block_1,1491,9,5742,1,-0.49107,129.869,3.55946,134.18,-0.365295
block_1,1492,9,5743,1,-0.400245,149.602,3.36128,154.682,-0.300155
block_1,1493,9,5744,1,-0.401914,149.369,3.39683,154.556,-0.300156
block_1,1494,9,5745,1,-0.49325,129.669,3.5975,134.072,-0.365296
block_1,1495,9,5746,1,-0.49546,129.466,3.63553,133.963,-0.365296
block_1,1496,9,5747,1,-0.593319,110.077,3.71966,113.648,-0.434532
block_1,1497,9,5748,1,-0.596155,109.909,3.75983,113.557,-0.434533
block_1,1498,9,5749,1,-0.714573,90.0902,3.88489,93.0127,-0.507238
block_1,1499,9,5750,1,-0.718345,89.9529,3.92684,92.9387,-0.507239
block_1,1500,9,5751,1,-0.59903,109.739,3.8,113.466,-0.434534
block_1,1501,9,5752,1,-0.601944,109.568,3.84017,113.373,-0.434535
block_1,1502,9,5753,1,-0.72217,89.8142,3.96879,92.8638,-0.50724
block_1,1503,9,5754,1,-0.726046,89.674,4.01074,92.7882,-0.507241
block_1,1504,9,5755,1,-0.842824,70.5227,3.84364,72.6051,-0.582777
block_1,1505,9,5756,1,-0.847701,70.4205,3.88701,72.55,-0.582778
block_1,1506,9,5757,1,-1.03545,50.4232,3.9386,51.9118,-0.660529
block_1,1507,9,5758,1,-1.04253,50.3502,3.98303,51.8724,-0.66053
block_1,1508,9,5759,1,-0.852647,70.3171,3.93038,72.4942,-0.58278
block_1,1509,9,5760,1,-0.857662,70.2125,3.97375,72.4378,-0.582781
block_1,1510,9,5761,1,-1.0497,50.2763,4.02747,51.8325,-0.660532
block_1,1511,9,5762,1,-1.05697,50.2016,4.07191,51.7922,-0.660533
block_1,1512,9,5763,1,-1.36401,30.3256,4.00197,31.2203,-0.73986
block_1,1513,9,5764,1,-1.37568,30.2817,4.04712,31.1966,-0.739861
block_1,1514,9,5765,1,-2.38538,10.229,4.03376,10.5298,-0.820139
block_1,1515,9,5766,1,-2.41174,10.2142,4.07927,10.5219,-0.82014
block_1,1516,9,5767,1,-1.3875,30.2372,4.09227,31.1726,-0.739863
block_1,1517,9,5768,1,-1.39948,30.1923,4.13742,31.1484,-0.739864
block_1,1518,9,5769,1,-2.43836,10.1993,4.12477,10.5138,-0.820142
block_1,1519,9,5770,1,-2.46526,10.1842,4.17028,10.5057,-0.820144
block_1,1520,9,5771,1,-0.862747,70.1069,4.01712,72.3809,-0.582782
block_1,1521,9,5772,1,-0.867902,70.0001,4.06049,72.3233,-0.582783
block_1,1522,9,5773,1,-1.06434,50.126,4.11635,51.7515,-0.660535
block_1,1523,9,5774,1,-1.07181,50.0497,4.16078,51.7103,-0.660536
block_1,1524,9,5775,1,-0.873128,69.8921,4.10386,72.265,-0.582785
block_1,1525,9,5776,1,-0.878425,69.783,4.14723,72.2062,-0.582786
block_1,1526,9,5777,1,-1.07938,49.9725,4.20522,51.6687,-0.660537
block_1,1527,9,5778,1,-1.08705,49.8945,4.24966,51.6267,-0.660539
block_1,1528,9,5779,1,-1.41161,30.1469,4.18257,31.1239,-0.739866
block_1,1529,9,5780,1,-1.4239,30.101,4.22772,31.0992,-0.739867
block_1,1530,9,5781,1,-2.49242,10.1689,4.21579,10.4974,-0.820146
block_1,1531,9,5782,1,-2.51985,10.1535,4.2613,10.4891,-0.820147
block_1,1532,9,5783,1,-1.43636,30.0547,4.27287,31.0742,-0.739869
block_1,1533,9,5784,1,-1.44897,30.0078,4.31803,31.0489,-0.73987
block_1,1534,9,5785,1,-2.54755,10.1379,4.30681,10.4807,-0.820149
block_1,1535,9,5786,1,-2.57551,10.1221,4.35232,10.4722,-0.820151
block_1,1536,9,5787,1,-0.0144207,308.353,0.263589,319.295,-0.00212874
block_1,1537,9,5788,1,-0.0144004,307.861,0.266438,319.029,-0.00212875
block_1,1538,9,5789,1,-0.0268058,288.42,0.78017,298.656,-0.0118139
block_1,1539,9,5790,1,-0.0268264,287.959,0.788351,298.407,-0.0118139
block_1,1540,9,5791,1,-0.0143799,307.363,0.269287,318.761,-0.00212875
block_1,1541,9,5792,1,-0.0143592,306.86,0.272134,318.49,-0.00212876
block_1,1542,9,5793,1,-0.0268474,287.493,0.79653,298.156,-0.0118139
block_1,1543,9,5794,1,-0.0268688,287.023,0.804709,297.903,-0.0118139
block_1,1544,9,5795,1,-0.050387,268.497,1.26233,278.027,-0.0306353
block_1,1545,9,5796,1,-0.0504917,268.067,1.27548,277.795,-0.0306353
block_1,1546,9,5797,1,-0.0846274,248.583,1.71006,257.407,-0.0579632
block_1,1547,9,5798,1,-0.0848608,248.186,1.72784,257.193,-0.0579633
block_1,1548,9,5799,1,-0.050598,267.634,1.28864,277.562,-0.0306354
block_1,1549,9,5800,1,-0.0507057,267.196,1.30179,277.325,-0.0306355
block_1,1550,9,5801,1,-0.0850974,247.784,1.74561,256.977,-0.0579634
block_1,1551,9,5802,1,-0.0853373,247.379,1.76339,256.758,-0.0579636
block_1,1552,9,5803,1,-0.0143384,306.353,0.27498,318.216,-0.00212876
block_1,1553,9,5804,1,-0.0143173,305.84,0.277825,317.94,-0.00212877
block_1,1554,9,5805,1,-0.0268905,286.548,0.812886,297.646,-0.011814
block_1,1555,9,5806,1,-0.0269126,286.068,0.821063,297.388,-0.011814
block_1,1556,9,5807,1,-0.0142961,305.322,0.280669,317.66,-0.00212877
block_1,1557,9,5808,1,-0.0142746,304.799,0.283512,317.379,-0.00212878
block_1,1558,9,5809,1,-0.0269352,285.584,0.829239,297.127,-0.011814
block_1,1559,9,5810,1,-0.0269581,285.095,0.837415,296.863,-0.0118141
block_1,1560,9,5811,1,-0.050815,266.754,1.31495,277.087,-0.0306356
block_1,1561,9,5812,1,-0.0509259,266.307,1.3281,276.846,-0.0306356
block_1,1562,9,5813,1,-0.0855806,246.969,1.78117,256.537,-0.0579637
block_1,1563,9,5814,1,-0.0858272,246.556,1.79894,256.314,-0.0579638
block_1,1564,9,5815,1,-0.0510383,265.856,1.34125,276.603,-0.0306357
block_1,1565,9,5816,1,-0.0511524,265.401,1.35441,276.357,-0.0306358
block_1,1566,9,5817,1,-0.0860772,246.138,1.81671,256.089,-0.057964
block_1,1567,9,5818,1,-0.0863306,245.716,1.83449,255.862,-0.0579641
block_1,1568,9,5819,1,-0.129053,228.678,2.12337,236.797,-0.0931677
block_1,1569,9,5820,1,-0.129462,228.312,2.14541,236.6,-0.0931679
block_1,1570,9,5821,1,-0.18328,208.781,2.50226,216.194,-0.135619
block_1,1571,9,5822,1,-0.183916,208.448,2.52821,216.014,-0.135619
block_1,1572,9,5823,1,-0.129876,227.943,2.16746,236.4,-0.0931681
block_1,1573,9,5824,1,-0.130297,227.57,2.1895,236.199,-0.0931684
block_1,1574,9,5825,1,-0.184561,208.11,2.55416,215.833,-0.13562
block_1,1575,9,5826,1,-0.185214,207.77,2.58011,215.649,-0.13562
block_1,1576,9,5827,1,-0.247067,188.892,2.84672,195.599,-0.184688
block_1,1577,9,5828,1,-0.247988,188.59,2.87623,195.437,-0.184688
block_1,1578,9,5829,1,-0.320393,169.009,3.15676,175.011,-0.239743
block_1,1579,9,5830,1,-0.321668,168.739,3.18947,174.866,-0.239744
block_1,1580,9,5831,1,-0.248921,188.285,2.90574,195.272,-0.184688
block_1,1581,9,5832,1,-0.249868,187.977,2.93524,195.106,-0.184689
block_1,1582,9,5833,1,-0.32296,168.466,3.22218,174.718,-0.239744
block_1,1583,9,5834,1,-0.32427,168.19,3.25488,174.57,-0.239745
block_1,1584,9,5835,1,-0.130723,227.193,2.21154,235.996,-0.0931686
block_1,1585,9,5836,1,-0.131155,226.813,2.23358,235.791,-0.0931688
block_1,1586,9,5837,1,-0.185877,207.426,2.60607,215.463,-0.13562
block_1,1587,9,5838,1,-0.186548,207.078,2.63202,215.276,-0.135621
block_1,1588,9,5839,1,-0.131593,226.429,2.25562,235.584,-0.0931691
block_1,1589,9,5840,1,-0.132037,226.041,2.27766,235.375,-0.0931693
block_1,1590,9,5841,1,-0.187229,206.727,2.65797,215.087,-0.135621
block_1,1591,9,5842,1,-0.187918,206.373,2.68392,214.896,-0.135621
block_1,1592,9,5843,1,-0.250827,187.665,2.96475,194.938,-0.184689
block_1,1593,9,5844,1,-0.251799,187.351,2.99426,194.769,-0.18469
block_1,1594,9,5845,1,-0.325598,167.912,3.28759,174.419,-0.239746
block_1,1595,9,5846,1,-0.326943,167.631,3.32029,174.268,-0.239746
block_1,1596,9,5847,1,-0.252784,187.034,3.02376,194.597,-0.18469
block_1,1597,9,5848,1,-0.253783,186.713,3.05327,194.425,-0.184691
block_1,1598,9,5849,1,-0.328307,167.346,3.353,174.115,-0.239747
block_1,1599,9,5850,1,-0.329689,167.06,3.38571,173.96,-0.239747
block_1,1600,9,5851,1,-0.014253,304.271,0.286354,317.094,-0.00212878
block_1,1601,9,5852,1,-0.0142312,303.738,0.289195,316.806,-0.00212879
block_1,1602,9,5853,1,-0.0269814,284.601,0.845589,296.597,-0.0118141
block_1,1603,9,5854,1,-0.0270052,284.102,0.853763,296.328,-0.0118141
block_1,1604,9,5855,1,-0.0142092,303.2,0.292035,316.516,-0.00212879
block_1,1605,9,5856,1,-0.014187,302.657,0.294874,316.224,-0.0021288
block_1,1606,9,5857,1,-0.0270293,283.599,0.861936,296.056,-0.0118142
block_1,1607,9,5858,1,-0.0270539,283.09,0.870108,295.782,-0.0118142
block_1,1608,9,5859,1,-0.0512681,264.941,1.36756,276.109,-0.0306359
block_1,1609,9,5860,1,-0.0513854,264.476,1.38071,275.859,-0.0306359
block_1,1610,9,5861,1,-0.0865875,245.29,1.85226,255.632,-0.0579643
block_1,1611,9,5862,1,-0.0868479,244.86,1.87003,255.4,-0.0579644
block_1,1612,9,5863,1,-0.0515043,264.008,1.39386,275.606,-0.030636
block_1,1613,9,5864,1,-0.0516249,263.535,1.40701,275.351,-0.0306361
block_1,1614,9,5865,1,-0.0871119,244.426,1.88781,255.166,-0.0579646
block_1,1615,9,5866,1,-0.0873794,243.988,1.90558,254.93,-0.0579647
block_1,1616,9,5867,1,-0.0141647,302.108,0.297713,315.928,-0.0021288
block_1,1617,9,5868,1,-0.0141421,301.555,0.30055,315.63,-0.00212881
block_1,1618,9,5869,1,-0.0270789,282.578,0.87828,295.506,-0.0118142
block_1,1619,9,5870,1,-0.0271044,282.06,0.886451,295.227,-0.0118142
block_1,1620,9,5871,1,-0.0141194,300.997,0.303387,315.329,-0.00212882
block_1,1621,9,5872,1,-0.0140965,300.433,0.306223,315.025,-0.00212882
block_1,1622,9,5873,1,-0.0271303,281.538,0.894621,294.945,-0.0118143
block_1,1623,9,5874,1,-0.0271566,281.01,0.902791,294.661,-0.0118143
block_1,1624,9,5875,1,-0.0517473,263.057,1.42016,275.094,-0.0306362
block_1,1625,9,5876,1,-0.0518713,262.575,1.43331,274.834,-0.0306363
block_1,1626,9,5877,1,-0.0876505,243.546,1.92335,254.692,-0.0579649
block_1,1627,9,5878,1,-0.0879253,243.1,1.94112,254.451,-0.057965
block_1,1628,9,5879,1,-0.051997,262.089,1.44646,274.572,-0.0306364
block_1,1629,9,5880,1,-0.0521245,261.598,1.45961,274.307,-0.0306364
block_1,1630,9,5881,1,-0.0882037,242.649,1.9589,254.208,-0.0579652
block_1,1631,9,5882,1,-0.0884859,242.195,1.97667,253.963,-0.0579654
block_1,1632,9,5883,1,-0.132486,225.649,2.2997,235.163,-0.0931695
block_1,1633,9,5884,1,-0.132942,225.253,2.32174,234.95,-0.0931698
block_1,1634,9,5885,1,-0.188617,206.015,2.70987,214.703,-0.135622
block_1,1635,9,5886,1,-0.189326,205.654,2.73582,214.508,-0.135622
block_1,1636,9,5887,1,-0.133404,224.854,2.34378,234.735,-0.09317
block_1,1637,9,5888,1,-0.133872,224.451,2.36582,234.518,-0.0931702
block_1,1638,9,5889,1,-0.190043,205.289,2.76177,214.312,-0.135622
block_1,1639,9,5890,1,-0.190771,204.921,2.78772,214.113,-0.135623
block_1,1640,9,5891,1,-0.254795,186.389,3.08278,194.25,-0.184691
block_1,1641,9,5892,1,-0.25582,186.062,3.11228,194.074,-0.184692
block_1,1642,9,5893,1,-0.331089,166.77,3.41842,173.804,-0.239748
block_1,1643,9,5894,1,-0.332508,166.477,3.45112,173.646,-0.239749
block_1,1644,9,5895,1,-0.256859,185.732,3.14179,193.896,-0.184692
block_1,1645,9,5896,1,-0.257911,185.399,3.1713,193.716,-0.184693
block_1,1646,9,5897,1,-0.333945,166.182,3.48383,173.487,-0.239749
block_1,1647,9,5898,1,-0.335401,165.884,3.51654,173.326,-0.23975
block_1,1648,9,5899,1,-0.134347,224.044,2.38786,234.298,-0.0931705
block_1,1649,9,5900,1,-0.134827,223.633,2.4099,234.077,-0.0931707
block_1,1650,9,5901,1,-0.191507,204.55,2.81367,213.913,-0.135623
block_1,1651,9,5902,1,-0.192254,204.175,2.83963,213.711,-0.135624
block_1,1652,9,5903,1,-0.135314,223.219,2.43193,233.854,-0.093171
block_1,1653,9,5904,1,-0.135808,222.801,2.45397,233.628,-0.0931712
block_1,1654,9,5905,1,-0.19301,203.797,2.86558,213.507,-0.135624
block_1,1655,9,5906,1,-0.193776,203.415,2.89153,213.301,-0.135624
block_1,1656,9,5907,1,-0.258978,185.063,3.2008,193.535,-0.184693
block_1,1657,9,5908,1,-0.260058,184.724,3.23031,193.352,-0.184694
block_1,1658,9,5909,1,-0.336877,165.584,3.54925,173.164,-0.23975
block_1,1659,9,5910,1,-0.338371,165.28,3.58195,173.001,-0.239751
block_1,1660,9,5911,1,-0.261152,184.382,3.25982,193.168,-0.184694
block_1,1661,9,5912,1,-0.262261,184.036,3.28933,192.982,-0.184695
block_1,1662,9,5913,1,-0.339886,164.974,3.61466,172.836,-0.239752
block_1,1663,9,5914,1,-0.341419,164.665,3.64737,172.669,-0.239752
block_1,1664,9,5915,1,-0.403606,149.133,3.43238,154.429,-0.300156
block_1,1665,9,5916,1,-0.405321,148.894,3.46793,154.301,-0.300157
block_1,1666,9,5917,1,-0.497701,129.262,3.67357,133.852,-0.365297
block_1,1667,9,5918,1,-0.499972,129.055,3.71161,133.741,-0.365298
block_1,1668,9,5919,1,-0.40706,148.654,3.50348,154.171,-0.300158
block_1,1669,9,5920,1,-0.408822,148.41,3.53903,154.039,-0.300159
block_1,1670,9,5921,1,-0.502274,128.846,3.74965,133.628,-0.365299
block_1,1671,9,5922,1,-0.504608,128.635,3.78769,133.515,-0.3653
block_1,1672,9,5923,1,-0.604899,109.395,3.88034,113.28,-0.434536
block_1,1673,9,5924,1,-0.607894,109.22,3.92051,113.186,-0.434537
block_1,1674,9,5925,1,-0.729976,89.5323,4.05269,92.7118,-0.507242
block_1,1675,9,5926,1,-0.733959,89.3892,4.09464,92.6347,-0.507244
block_1,1676,9,5927,1,-0.610929,109.043,3.96069,113.091,-0.434538
block_1,1677,9,5928,1,-0.614006,108.865,4.00086,112.994,-0.434539
block_1,1678,9,5929,1,-0.737996,89.2445,4.13659,92.5567,-0.507245
block_1,1679,9,5930,1,-0.742087,89.0984,4.17854,92.4779,-0.507246
block_1,1680,9,5931,1,-0.410608,148.164,3.57458,153.907,-0.300159
block_1,1681,9,5932,1,-0.412418,147.916,3.61013,153.773,-0.30016
block_1,1682,9,5933,1,-0.506973,128.422,3.82573,133.4,-0.365301
block_1,1683,9,5934,1,-0.509369,128.207,3.86377,133.284,-0.365301
block_1,1684,9,5935,1,-0.414252,147.665,3.64568,153.638,-0.300161
block_1,1685,9,5936,1,-0.416111,147.412,3.68124,153.501,-0.300161
block_1,1686,9,5937,1,-0.511798,127.99,3.90181,133.167,-0.365302
block_1,1687,9,5938,1,-0.514259,127.77,3.93985,133.048,-0.365303
block_1,1688,9,5939,1,-0.617123,108.685,4.04103,112.897,-0.43454
block_1,1689,9,5940,1,-0.620283,108.502,4.08121,112.799,-0.434541
block_1,1690,9,5941,1,-0.746233,88.9509,4.22049,92.3983,-0.507247
block_1,1691,9,5942,1,-0.750435,88.8018,4.26245,92.318,-0.507248
block_1,1692,9,5943,1,-0.623484,108.319,4.12138,112.7,-0.434542
block_1,1693,9,5944,1,-0.626728,108.133,4.16156,112.6,-0.434543
block_1,1694,9,5945,1,-0.754692,88.6513,4.3044,92.2369,-0.507249
block_1,1695,9,5946,1,-0.759005,88.4993,4.34636,92.1549,-0.507251
block_1,1696,9,5947,1,-0.883794,69.6728,4.19061,72.1468,-0.582787
block_1,1697,9,5948,1,-0.889236,69.5614,4.23398,72.0867,-0.582788
block_1,1698,9,5949,1,-1.09483,49.8157,4.29411,51.5842,-0.66054
block_1,1699,9,5950,1,-1.10271,49.7361,4.33855,51.5412,-0.660542
block_1,1700,9,5951,1,-0.89475,69.4488,4.27736,72.026,-0.58279
block_1,1701,9,5952,1,-0.900339,69.3352,4.32073,71.9647,-0.582791
block_1,1702,9,5953,1,-1.11069,49.6556,4.38299,51.4979,-0.660543
block_1,1703,9,5954,1,-1.11878,49.5744,4.42743,51.4541,-0.660545
block_1,1704,9,5955,1,-1.46174,29.9604,4.36318,31.0234,-0.739872
block_1,1705,9,5956,1,-1.47468,29.9126,4.40834,30.9976,-0.739874
block_1,1706,9,5957,1,-2.60373,10.1062,4.39783,10.4636,-0.820152
block_1,1707,9,5958,1,-2.63222,10.0901,4.44334,10.455,-0.820154
block_1,1708,9,5959,1,-1.48778,29.8642,4.45349,30.9715,-0.739875
block_1,1709,9,5960,1,-1.50104,29.8154,4.49865,30.9452,-0.739877
block_1,1710,9,5961,1,-2.66096,10.0738,4.48886,10.4462,-0.820156
block_1,1711,9,5962,1,-2.68997,10.0574,4.53437,10.4373,-0.820158
block_1,1712,9,5963,1,-0.906001,69.2203,4.36411,71.9028,-0.582792
block_1,1713,9,5964,1,-0.911738,69.1044,4.40749,71.8403,-0.582794
block_1,1714,9,5965,1,-1.12697,49.4923,4.47188,51.4098,-0.660546
block_1,1715,9,5966,1,-1.13527,49.4094,4.51632,51.3651,-0.660548
block_1,1716,9,5967,1,-0.917551,68.9873,4.45086,71.7772,-0.582795
block_1,1717,9,5968,1,-0.92344,68.869,4.49424,71.7134,-0.582797
block_1,1718,9,5969,1,-1.14368,49.3257,4.56077,51.32,-0.660549
block_1,1719,9,5970,1,-1.1522,49.2412,4.60522,51.2744,-0.660551
block_1,1720,9,5971,1,-1.51447,29.766,4.5438,30.9186,-0.739879
block_1,1721,9,5972,1,-1.52807,29.7162,4.58896,30.8917,-0.73988
block_1,1722,9,5973,1,-2.71923,10.0408,4.57988,10.4284,-0.82016
block_1,1723,9,5974,1,-2.74875,10.0241,4.6254,10.4194,-0.820162
block_1,1724,9,5975,1,-1.54183,29.6659,4.63412,30.8646,-0.739882
block_1,1725,9,5976,1,-1.55576,29.6151,4.67928,30.8372,-0.739884
block_1,1726,9,5977,1,-2.77852,10.0072,4.67092,10.4102,-0.820164
block_1,1727,9,5978,1,-2.80854,9.99008,4.71643,10.401,-0.820165
block_1,1728,9,5979,1,-0.417994,147.157,3.71679,153.364,-0.300162
block_1,1729,9,5980,1,-0.419903,146.899,3.75234,153.225,-0.300163
block_1,1730,9,5981,1,-0.516752,127.549,3.9779,132.929,-0.365304
block_1,1731,9,5982,1,-0.519279,127.325,4.01594,132.808,-0.365305
block_1,1732,9,5983,1,-0.421836,146.638,3.78789,153.084,-0.300164
block_1,1733,9,5984,1,-0.423795,146.375,3.82345,152.942,-0.300164
block_1,1734,9,5985,1,-0.521838,127.099,4.05398,132.686,-0.365306
block_1,1735,9,5986,1,-0.524431,126.871,4.09202,132.564,-0.365307
block_1,1736,9,5987,1,-0.630015,107.945,4.20174,112.499,-0.434544
block_1,1737,9,5988,1,-0.633345,107.756,4.24191,112.396,-0.434545
block_1,1738,9,5989,1,-0.763375,88.3459,4.38831,92.0722,-0.507252
block_1,1739,9,5990,1,-0.767801,88.1909,4.43027,91.9887,-0.507253
block_1,1740,9,5991,1,-0.636719,107.565,4.28209,112.293,-0.434546
block_1,1741,9,5992,1,-0.640136,107.372,4.32227,112.189,-0.434547
block_1,1742,9,5993,1,-0.772286,88.0346,4.47222,91.9044,-0.507254
block_1,1743,9,5994,1,-0.776829,87.8767,4.51418,91.8193,-0.507256
block_1,1744,9,5995,1,-0.425779,146.11,3.859,152.799,-0.300165
block_1,1745,9,5996,1,-0.427789,145.842,3.89455,152.655,-0.300166
block_1,1746,9,5997,1,-0.527058,126.641,4.13007,132.44,-0.365308
block_1,1747,9,5998,1,-0.529719,126.409,4.16811,132.314,-0.365309
block_1,1748,9,5999,1,-0.429825,145.572,3.93011,152.509,-0.300167
block_1,1749,9,6000,1,-0.431888,145.299,3.96566,152.362,-0.300168
block_1,1750,9,6001,1,-0.532414,126.175,4.20616,132.188,-0.36531
block_1,1751,9,6002,1,-0.535144,125.938,4.2442,132.061,-0.365311
block_1,1752,9,6003,1,-0.643598,107.177,4.36245,112.085,-0.434548
block_1,1753,9,6004,1,-0.647105,106.981,4.40263,111.979,-0.434549
block_1,1754,9,6005,1,-0.781431,87.7173,4.55614,91.7334,-0.507257
block_1,1755,9,6006,1,-0.786091,87.5565,4.5981,91.6467,-0.507258
block_1,1756,9,6007,1,-0.650657,106.783,4.4428,111.872,-0.434551
block_1,1757,9,6008,1,-0.654255,106.582,4.48298,111.764,-0.434552
block_1,1758,9,6009,1,-0.790812,87.3943,4.64005,91.5592,-0.50726
block_1,1759,9,6010,1,-0.795593,87.2305,4.68201,91.4709,-0.507261
block_1,1760,9,6011,1,-0.929406,68.7496,4.53762,71.6491,-0.582798
block_1,1761,9,6012,1,-0.935449,68.6291,4.581,71.5841,-0.582799
block_1,1762,9,6013,1,-1.16082,49.1558,4.64966,51.2284,-0.660552
block_1,1763,9,6014,1,-1.16956,49.0696,4.69411,51.1819,-0.660554
block_1,1764,9,6015,1,-0.941571,68.5074,4.62438,71.5185,-0.582801
block_1,1765,9,6016,1,-0.947771,68.3845,4.66776,71.4522,-0.582802
block_1,1766,9,6017,1,-1.17841,48.9827,4.73856,51.1351,-0.660556
block_1,1767,9,6018,1,-1.18737,48.8948,4.78301,51.0877,-0.660557
block_1,1768,9,6019,1,-1.56986,29.5638,4.72444,30.8095,-0.739886
block_1,1769,9,6020,1,-1.58413,29.512,4.7696,30.7816,-0.739887
block_1,1770,9,6021,1,-2.83882,9.97283,4.76195,10.3917,-0.820167
block_1,1771,9,6022,1,-2.86935,9.95542,4.80747,10.3823,-0.820169
block_1,1772,9,6023,1,-1.59857,29.4597,4.81476,30.7534,-0.739889
block_1,1773,9,6024,1,-1.61318,29.4069,4.85992,30.725,-0.739891
block_1,1774,9,6025,1,-2.90013,9.93784,4.85299,10.3729,-0.820171
block_1,1775,9,6026,1,-2.93116,9.9201,4.89851,10.3633,-0.820173
block_1,1776,9,6027,1,-0.954051,68.2605,4.71114,71.3854,-0.582804
block_1,1777,9,6028,1,-0.96041,68.1354,4.75452,71.318,-0.582805
block_1,1778,9,6029,1,-1.19644,48.8062,4.82746,51.0399,-0.660559
block_1,1779,9,6030,1,-1.20562,48.7168,4.87191,50.9917,-0.660561
block_1,1780,9,6031,1,-0.966851,68.0091,4.79791,71.2499,-0.582807
block_1,1781,9,6032,1,-0.973374,67.8817,4.84129,71.1812,-0.582808
block_1,1782,9,6033,1,-1.21492,48.6265,4.91636,50.9431,-0.660562
block_1,1783,9,6034,1,-1.22434,48.5354,4.96081,50.894,-0.660564
block_1,1784,9,6035,1,-1.62797,29.3537,4.90509,30.6963,-0.739893
block_1,1785,9,6036,1,-1.64293,29.2999,4.95025,30.6673,-0.739895
block_1,1786,9,6037,1,-2.96243,9.90219,4.94403,10.3536,-0.820175
block_1,1787,9,6038,1,-2.99395,9.88411,4.98955,10.3439,-0.820177
block_1,1788,9,6039,1,-1.65806,29.2457,4.99541,30.638,-0.739896
block_1,1789,9,6040,1,-1.67338,29.1909,5.04058,30.6085,-0.739898
block_1,1790,9,6041,1,-3.02571,9.86587,5.03507,10.3341,-0.820179
block_1,1791,9,6042,1,-3.05772,9.84747,5.08059,10.3241,-0.820181
block_1,1792,9,6043,1,-0.0140734,299.865,0.309058,314.719,-0.00212883
block_1,1793,9,6044,1,-0.0140502,299.291,0.311892,314.409,-0.00212883
block_1,1794,9,6045,1,-0.0271834,280.479,0.91096,294.374,-0.0118143
block_1,1795,9,6046,1,-0.0272107,279.942,0.919129,294.085,-0.0118144
block_1,1796,9,6047,1,-0.0140267,298.712,0.314726,314.097,-0.00212884
block_1,1797,9,6048,1,-0.0140031,298.129,0.317559,313.783,-0.00212885
block_1,1798,9,6049,1,-0.0272385,279.401,0.927297,293.793,-0.0118144
block_1,1799,9,6050,1,-0.0272667,278.855,0.935464,293.499,-0.0118144
block_1,1800,9,6051,1,-0.0522538,261.103,1.47275,274.041,-0.0306365
block_1,1801,9,6052,1,-0.0523848,260.603,1.4859,273.771,-0.0306366
block_1,1802,9,6053,1,-0.0887718,241.736,1.99444,253.716,-0.0579655
block_1,1803,9,6054,1,-0.0890615,241.274,2.01221,253.467,-0.0579657
block_1,1804,9,6055,1,-0.0525177,260.099,1.49905,273.5,-0.0306367
block_1,1805,9,6056,1,-0.0526524,259.591,1.51219,273.226,-0.0306368
block_1,1806,9,6057,1,-0.0893551,240.807,2.02998,253.215,-0.0579658
block_1,1807,9,6058,1,-0.0896525,240.336,2.04775,252.962,-0.057966
block_1,1808,9,6059,1,-0.0139793,297.54,0.320391,313.466,-0.00212885
block_1,1809,9,6060,1,-0.0139554,296.946,0.323222,313.145,-0.00212886
block_1,1810,9,6061,1,-0.0272955,278.304,0.943631,293.202,-0.0118145
block_1,1811,9,6062,1,-0.0273247,277.748,0.951797,292.903,-0.0118145
block_1,1812,9,6063,1,-0.0139312,296.347,0.326053,312.823,-0.00212886
block_1,1813,9,6064,1,-0.0139069,295.743,0.328883,312.497,-0.00212887
block_1,1814,9,6065,1,-0.0273544,277.188,0.959963,292.601,-0.0118145
block_1,1815,9,6066,1,-0.0273847,276.623,0.968129,292.296,-0.0118146
block_1,1816,9,6067,1,-0.0527889,259.078,1.52534,272.949,-0.0306369
block_1,1817,9,6068,1,-0.0529273,258.561,1.53849,272.67,-0.030637
block_1,1818,9,6069,1,-0.0899538,239.861,2.06552,252.706,-0.0579662
block_1,1819,9,6070,1,-0.0902592,239.382,2.08329,252.448,-0.0579663
block_1,1820,9,6071,1,-0.0530676,258.039,1.55163,272.389,-0.030637
block_1,1821,9,6072,1,-0.0532098,257.513,1.56478,272.106,-0.0306371
block_1,1822,9,6073,1,-0.0905685,238.899,2.10106,252.187,-0.0579665
block_1,1823,9,6074,1,-0.0908819,238.412,2.11883,251.925,-0.0579667
block_1,1824,9,6075,1,-0.136307,222.379,2.47601,233.401,-0.0931715
block_1,1825,9,6076,1,-0.136814,221.953,2.49805,233.171,-0.0931717
block_1,1826,9,6077,1,-0.194552,203.03,2.91748,213.094,-0.135625
block_1,1827,9,6078,1,-0.195339,202.641,2.94343,212.884,-0.135625
block_1,1828,9,6079,1,-0.137327,221.524,2.52009,232.94,-0.093172
block_1,1829,9,6080,1,-0.137846,221.091,2.54213,232.707,-0.0931723
block_1,1830,9,6081,1,-0.196135,202.249,2.96938,212.673,-0.135625
block_1,1831,9,6082,1,-0.196942,201.853,2.99533,212.46,-0.135626
block_1,1832,9,6083,1,-0.263384,183.688,3.31883,192.794,-0.184695
block_1,1833,9,6084,1,-0.264522,183.336,3.34834,192.604,-0.184696
block_1,1834,9,6085,1,-0.342973,164.353,3.68008,172.501,-0.239753
block_1,1835,9,6086,1,-0.344547,164.038,3.71279,172.331,-0.239754
block_1,1836,9,6087,1,-0.265674,182.981,3.37785,192.413,-0.184696
block_1,1837,9,6088,1,-0.266841,182.624,3.40736,192.22,-0.184697
block_1,1838,9,6089,1,-0.346141,163.721,3.7455,172.16,-0.239754
block_1,1839,9,6090,1,-0.347755,163.4,3.77821,171.988,-0.239755
block_1,1840,9,6091,1,-0.138373,220.654,2.56417,232.471,-0.0931725
block_1,1841,9,6092,1,-0.138906,220.213,2.5862,232.234,-0.0931728
block_1,1842,9,6093,1,-0.197759,201.455,3.02128,212.245,-0.135626
block_1,1843,9,6094,1,-0.198586,201.052,3.04723,212.028,-0.135626
block_1,1844,9,6095,1,-0.139446,219.769,2.60824,231.994,-0.0931731
block_1,1845,9,6096,1,-0.139993,219.321,2.63028,231.753,-0.0931733
block_1,1846,9,6097,1,-0.199425,200.646,3.07318,211.809,-0.135627
block_1,1847,9,6098,1,-0.200274,200.237,3.09913,211.589,-0.135627
block_1,1848,9,6099,1,-0.268023,182.263,3.43686,192.026,-0.184697
block_1,1849,9,6100,1,-0.26922,181.899,3.46637,191.829,-0.184698
block_1,1850,9,6101,1,-0.34939,163.077,3.81092,171.813,-0.239756
block_1,1851,9,6102,1,-0.351046,162.752,3.84363,171.638,-0.239756
block_1,1852,9,6103,1,-0.270432,181.531,3.49588,191.632,-0.184698
block_1,1853,9,6104,1,-0.27166,181.161,3.52539,191.432,-0.184699
block_1,1854,9,6105,1,-0.352722,162.423,3.87634,171.461,-0.239757
block_1,1855,9,6106,1,-0.354421,162.092,3.90905,171.282,-0.239758
block_1,1856,9,6107,1,-0.0138825,295.134,0.331713,312.169,-0.00212888
block_1,1857,9,6108,1,-0.0138578,294.52,0.334541,311.838,-0.00212888
block_1,1858,9,6109,1,-0.0274154,276.053,0.976293,291.989,-0.0118146
block_1,1859,9,6110,1,-0.0274467,275.479,0.984458,291.68,-0.0118147
block_1,1860,9,6111,1,-0.013833,293.901,0.33737,311.504,-0.00212889
block_1,1861,9,6112,1,-0.013808,293.277,0.340197,311.168,-0.0021289
block_1,1862,9,6113,1,-0.0274786,274.899,0.992622,291.367,-0.0118147
block_1,1863,9,6114,1,-0.0275109,274.315,1.00079,291.053,-0.0118147
block_1,1864,9,6115,1,-0.0533539,256.982,1.57792,271.82,-0.0306372
block_1,1865,9,6116,1,-0.0535,256.447,1.59107,271.531,-0.0306373
block_1,1866,9,6117,1,-0.0911993,237.921,2.1366,251.66,-0.0579668
block_1,1867,9,6118,1,-0.091521,237.426,2.15436,251.393,-0.057967
block_1,1868,9,6119,1,-0.0536481,255.908,1.60421,271.241,-0.0306374
block_1,1869,9,6120,1,-0.0537982,255.364,1.61735,270.948,-0.0306375
block_1,1870,9,6121,1,-0.0918468,236.926,2.17213,251.124,-0.0579672
block_1,1871,9,6122,1,-0.0921768,236.423,2.1899,250.853,-0.0579674
block_1,1872,9,6123,1,-0.0137828,292.647,0.343025,310.829,-0.0021289
block_1,1873,9,6124,1,-0.0137575,292.013,0.345851,310.487,-0.00212891
block_1,1874,9,6125,1,-0.0275439,273.727,1.00895,290.735,-0.0118148
block_1,1875,9,6126,1,-0.0275774,273.133,1.01711,290.416,-0.0118148
block_1,1876,9,6127,1,-0.013732,291.374,0.348677,310.142,-0.00212892
block_1,1877,9,6128,1,-0.0137064,290.729,0.351503,309.795,-0.00212892
block_1,1878,9,6129,1,-0.0276115,272.535,1.02527,290.093,-0.0118148
block_1,1879,9,6130,1,-0.0276461,271.932,1.03343,289.768,-0.0118149
block_1,1880,9,6131,1,-0.0539503,254.816,1.6305,270.652,-0.0306376
block_1,1881,9,6132,1,-0.0541045,254.264,1.64364,270.355,-0.0306377
block_1,1882,9,6133,1,-0.0925111,235.915,2.20767,250.579,-0.0579675
block_1,1883,9,6134,1,-0.0928498,235.404,2.22544,250.303,-0.0579677
block_1,1884,9,6135,1,-0.0542608,253.707,1.65678,270.054,-0.0306378
block_1,1885,9,6136,1,-0.0544191,253.145,1.66992,269.752,-0.0306379
block_1,1886,9,6137,1,-0.0931929,234.888,2.2432,250.025,-0.0579679
block_1,1887,9,6138,1,-0.0935403,234.368,2.26097,249.745,-0.0579681
block_1,1888,9,6139,1,-0.140548,218.869,2.65232,231.509,-0.0931736
block_1,1889,9,6140,1,-0.141109,218.413,2.67435,231.263,-0.0931739
block_1,1890,9,6141,1,-0.201133,199.824,3.12508,211.366,-0.135628
block_1,1891,9,6142,1,-0.202004,199.408,3.15103,211.142,-0.135628
block_1,1892,9,6143,1,-0.141677,217.954,2.69639,231.016,-0.0931742
block_1,1893,9,6144,1,-0.142253,217.49,2.71843,230.766,-0.0931744
block_1,1894,9,6145,1,-0.202886,198.989,3.17699,210.916,-0.135628
block_1,1895,9,6146,1,-0.203779,198.566,3.20294,210.688,-0.135629
block_1,1896,9,6147,1,-0.272904,180.788,3.5549,191.231,-0.184699
block_1,1897,9,6148,1,-0.274163,180.411,3.58441,191.028,-0.1847
block_1,1898,9,6149,1,-0.35614,161.758,3.94176,171.102,-0.239758
block_1,1899,9,6150,1,-0.357881,161.421,3.97447,170.921,-0.239759
block_1,1900,9,6151,1,-0.275438,180.032,3.61391,190.823,-0.1847
block_1,1901,9,6152,1,-0.276729,179.649,3.64342,190.617,-0.184701
block_1,1902,9,6153,1,-0.359645,161.081,4.00718,170.738,-0.23976
block_1,1903,9,6154,1,-0.36143,160.739,4.03989,170.553,-0.23976
block_1,1904,9,6155,1,-0.142836,217.023,2.74047,230.514,-0.0931747
block_1,1905,9,6156,1,-0.143427,216.553,2.7625,230.261,-0.093175
block_1,1906,9,6157,1,-0.204683,198.14,3.22889,210.458,-0.135629
block_1,1907,9,6158,1,-0.205599,197.71,3.25484,210.226,-0.13563
block_1,1908,9,6159,1,-0.144025,216.078,2.78454,230.005,-0.0931753
block_1,1909,9,6160,1,-0.14463,215.6,2.80658,229.747,-0.0931756
block_1,1910,9,6161,1,-0.206526,197.276,3.28079,209.993,-0.13563
block_1,1911,9,6162,1,-0.207465,196.84,3.30674,209.758,-0.135631
block_1,1912,9,6163,1,-0.278037,179.263,3.67293,190.409,-0.184701
block_1,1913,9,6164,1,-0.279361,178.874,3.70244,190.2,-0.184702
block_1,1914,9,6165,1,-0.363238,160.393,4.0726,170.367,-0.239761
block_1,1915,9,6166,1,-0.365069,160.045,4.10531,170.179,-0.239762
block_1,1916,9,6167,1,-0.280701,178.482,3.73195,189.988,-0.184702
block_1,1917,9,6168,1,-0.282059,178.087,3.76146,189.775,-0.184703
block_1,1918,9,6169,1,-0.366922,159.695,4.13802,169.99,-0.239763
block_1,1919,9,6170,1,-0.368799,159.341,4.17074,169.8,-0.239763
block_1,1920,9,6171,1,-0.433977,145.024,4.00122,152.214,-0.300168
block_1,1921,9,6172,1,-0.436093,144.746,4.03677,152.064,-0.300169
block_1,1922,9,6173,1,-0.537909,125.7,4.28225,131.932,-0.365312
block_1,1923,9,6174,1,-0.54071,125.459,4.32029,131.802,-0.365313
block_1,1924,9,6175,1,-0.438236,144.466,4.07233,151.913,-0.30017
block_1,1925,9,6176,1,-0.440407,144.183,4.10788,151.761,-0.300171
block_1,1926,9,6177,1,-0.543546,125.216,4.35834,131.672,-0.365314
block_1,1927,9,6178,1,-0.546419,124.971,4.39638,131.54,-0.365315
block_1,1928,9,6179,1,-0.657899,106.381,4.52316,111.655,-0.434553
block_1,1929,9,6180,1,-0.661589,106.177,4.56334,111.545,-0.434554
block_1,1930,9,6181,1,-0.800435,87.0653,4.72397,91.3819,-0.507262
block_1,1931,9,6182,1,-0.805339,86.8986,4.76593,91.292,-0.507263
block_1,1932,9,6183,1,-0.665326,105.971,4.60353,111.435,-0.434555
block_1,1933,9,6184,1,-0.669111,105.764,4.64371,111.323,-0.434556
block_1,1934,9,6185,1,-0.810304,86.7304,4.80789,91.2014,-0.507265
block_1,1935,9,6186,1,-0.815333,86.5608,4.84985,91.11,-0.507266
block_1,1936,9,6187,1,-0.442605,143.898,4.14344,151.607,-0.300172
block_1,1937,9,6188,1,-0.444831,143.611,4.179,151.452,-0.300172
block_1,1938,9,6189,1,-0.549328,124.724,4.43443,131.406,-0.365316
block_1,1939,9,6190,1,-0.552274,124.475,4.47248,131.272,-0.365317
block_1,1940,9,6191,1,-0.447086,143.321,4.21455,151.296,-0.300173
block_1,1941,9,6192,1,-0.449369,143.028,4.25011,151.138,-0.300174
block_1,1942,9,6193,1,-0.555257,124.224,4.51052,131.137,-0.365318
block_1,1943,9,6194,1,-0.558278,123.97,4.54857,131,-0.365319
block_1,1944,9,6195,1,-0.672944,105.555,4.68389,111.21,-0.434558
block_1,1945,9,6196,1,-0.676825,105.344,4.72407,111.096,-0.434559
block_1,1946,9,6197,1,-0.820425,86.3897,4.89182,91.0177,-0.507268
block_1,1947,9,6198,1,-0.82558,86.2171,4.93378,90.9247,-0.507269
block_1,1948,9,6199,1,-0.680755,105.131,4.76425,110.982,-0.43456
block_1,1949,9,6200,1,-0.684734,104.917,4.80444,110.866,-0.434561
block_1,1950,9,6201,1,-0.8308,86.043,4.97574,90.8309,-0.50727
block_1,1951,9,6202,1,-0.836086,85.8675,5.0177,90.7363,-0.507272
block_1,1952,9,6203,1,-0.979979,67.7532,4.88467,71.1119,-0.58281
block_1,1953,9,6204,1,-0.986667,67.6235,4.92806,71.042,-0.582811
block_1,1954,9,6205,1,-1.23387,48.4435,5.00526,50.8445,-0.660566
block_1,1955,9,6206,1,-1.24352,48.3508,5.04972,50.7945,-0.660567
block_1,1956,9,6207,1,-0.993439,67.4926,4.97144,70.9715,-0.582813
block_1,1957,9,6208,1,-1.0003,67.3606,5.01483,70.9003,-0.582814
block_1,1958,9,6209,1,-1.25329,48.2573,5.09417,50.7441,-0.660569
block_1,1959,9,6210,1,-1.26317,48.1629,5.13862,50.6932,-0.660571
block_1,1960,9,6211,1,-1.68887,29.1357,5.08574,30.5788,-0.7399
block_1,1961,9,6212,1,-1.70454,29.08,5.13091,30.5487,-0.739902
block_1,1962,9,6213,1,-3.08997,9.8289,5.12611,10.3141,-0.820183
block_1,1963,9,6214,1,-3.12246,9.81016,5.17164,10.304,-0.820185
block_1,1964,9,6215,1,-1.72039,29.0237,5.17608,30.5184,-0.739904
block_1,1965,9,6216,1,-1.73643,28.967,5.22124,30.4878,-0.739906
block_1,1966,9,6217,1,-3.15518,9.79126,5.21716,10.2938,-0.820188
block_1,1967,9,6218,1,-3.18815,9.77219,5.26269,10.2836,-0.82019
block_1,1968,9,6219,1,-1.00724,67.2275,5.05821,70.8286,-0.582816
block_1,1969,9,6220,1,-1.01427,67.0932,5.1016,70.7562,-0.582817
block_1,1970,9,6221,1,-1.27318,48.0678,5.18308,50.6419,-0.660573
block_1,1971,9,6222,1,-1.28331,47.9718,5.22753,50.5902,-0.660574
block_1,1972,9,6223,1,-1.02138,66.9577,5.14498,70.6832,-0.582819
block_1,1973,9,6224,1,-1.02859,66.8212,5.18837,70.6096,-0.582821
block_1,1974,9,6225,1,-1.29357,47.875,5.27199,50.538,-0.660576
block_1,1975,9,6226,1,-1.30394,47.7773,5.31644,50.4854,-0.660578
block_1,1976,9,6227,1,-1.75264,28.9098,5.26641,30.457,-0.739908
block_1,1977,9,6228,1,-1.76904,28.8521,5.31158,30.4259,-0.73991
block_1,1978,9,6229,1,-3.22135,9.75296,5.30821,10.2732,-0.820192
block_1,1979,9,6230,1,-3.25479,9.73356,5.35374,10.2627,-0.820194
block_1,1980,9,6231,1,-1.78563,28.7939,5.35675,30.3946,-0.739912
block_1,1981,9,6232,1,-1.8024,28.7353,5.40191,30.3629,-0.739914
block_1,1982,9,6233,1,-3.28847,9.714,5.39926,10.2522,-0.820196
block_1,1983,9,6234,1,-3.32237,9.69427,5.44479,10.2416,-0.820198
block_1,1984,9,6235,1,-0.45168,142.734,4.28567,150.98,-0.300175
block_1,1985,9,6236,1,-0.454021,142.436,4.32122,150.819,-0.300176
block_1,1986,9,6237,1,-0.561337,123.715,4.58662,130.862,-0.36532
block_1,1987,9,6238,1,-0.564434,123.457,4.62467,130.723,-0.365321
block_1,1988,9,6239,1,-0.456392,142.137,4.35678,150.658,-0.300177
block_1,1989,9,6240,1,-0.458792,141.834,4.39234,150.495,-0.300178
block_1,1990,9,6241,1,-0.56757,123.197,4.66272,130.583,-0.365322
block_1,1991,9,6242,1,-0.570746,122.935,4.70076,130.442,-0.365323
block_1,1992,9,6243,1,-0.688763,104.701,4.84462,110.75,-0.434562
block_1,1993,9,6244,1,-0.692843,104.483,4.8848,110.632,-0.434564
block_1,1994,9,6245,1,-0.841437,85.6905,5.05967,90.6409,-0.507273
block_1,1995,9,6246,1,-0.846855,85.512,5.10163,90.5447,-0.507275
block_1,1996,9,6247,1,-0.696974,104.263,4.92499,110.514,-0.434565
block_1,1997,9,6248,1,-0.701156,104.041,4.96517,110.394,-0.434566
block_1,1998,9,6249,1,-0.85234,85.3321,5.14359,90.4478,-0.507276
block_1,1999,9,6250,1,-0.857893,85.1507,5.18556,90.35,-0.507277
block_1,2000,9,6251,1,-0.461222,141.53,4.4279,150.331,-0.300179
block_1,2001,9,6252,1,-0.463682,141.223,4.46345,150.165,-0.300179
block_1,2002,9,6253,1,-0.57396,122.671,4.73881,130.3,-0.365324
block_1,2003,9,6254,1,-0.577215,122.405,4.77686,130.157,-0.365325
block_1,2004,9,6255,1,-0.466173,140.913,4.49901,149.998,-0.30018
block_1,2005,9,6256,1,-0.468696,140.601,4.53457,149.83,-0.300181
block_1,2006,9,6257,1,-0.580511,122.137,4.81491,130.012,-0.365326
block_1,2007,9,6258,1,-0.583847,121.866,4.85296,129.866,-0.365327
block_1,2008,9,6259,1,-0.70539,103.818,5.00536,110.274,-0.434567
block_1,2009,9,6260,1,-0.709676,103.592,5.04554,110.152,-0.434569
block_1,2010,9,6261,1,-0.863514,84.9678,5.22752,90.2514,-0.507279
block_1,2011,9,6262,1,-0.869205,84.7834,5.26949,90.1521,-0.50728
block_1,2012,9,6263,1,-0.714016,103.365,5.08573,110.03,-0.43457
block_1,2013,9,6264,1,-0.718409,103.136,5.12591,109.907,-0.434571
block_1,2014,9,6265,1,-0.874966,84.5976,5.31145,90.0519,-0.507282
block_1,2015,9,6266,1,-0.880798,84.4103,5.35342,89.951,-0.507283
block_1,2016,9,6267,1,-1.03588,66.6834,5.23176,70.5354,-0.582822
block_1,2017,9,6268,1,-1.04326,66.5446,5.27515,70.4605,-0.582824
block_1,2018,9,6269,1,-1.31444,47.6789,5.3609,50.4323,-0.66058
block_1,2019,9,6270,1,-1.32507,47.5796,5.40535,50.3788,-0.660582
block_1,2020,9,6271,1,-1.05073,66.4046,5.31853,70.3851,-0.582826
block_1,2021,9,6272,1,-1.0583,66.2634,5.36192,70.309,-0.582827
block_1,2022,9,6273,1,-1.33583,47.4795,5.44981,50.3249,-0.660583
block_1,2023,9,6274,1,-1.34671,47.3786,5.49427,50.2705,-0.660585
block_1,2024,9,6275,1,-1.81936,28.6761,5.44708,30.331,-0.739916
block_1,2025,9,6276,1,-1.83651,28.6164,5.49225,30.2989,-0.739918
block_1,2026,9,6277,1,-3.35651,9.67438,5.49032,10.2308,-0.820201
block_1,2027,9,6278,1,-3.39088,9.65432,5.53584,10.22,-0.820203
block_1,2028,9,6279,1,-1.85384,28.5563,5.53742,30.2665,-0.73992
block_1,2029,9,6280,1,-1.87138,28.4956,5.58259,30.2338,-0.739922
block_1,2030,9,6281,1,-3.42548,9.6341,5.58137,10.2091,-0.820205
block_1,2031,9,6282,1,-3.46031,9.61371,5.6269,10.1981,-0.820207
block_1,2032,9,6283,1,-1.06595,66.1211,5.40531,70.2323,-0.582829
block_1,2033,9,6284,1,-1.0737,65.9777,5.4487,70.155,-0.582831
block_1,2034,9,6285,1,-1.35772,47.2769,5.53873,50.2157,-0.660587
block_1,2035,9,6286,1,-1.36887,47.1744,5.58319,50.1604,-0.660589
block_1,2036,9,6287,1,-1.08155,65.8331,5.49209,70.0771,-0.582832
block_1,2037,9,6288,1,-1.08949,65.6873,5.53548,69.9986,-0.582834
block_1,2038,9,6289,1,-1.38014,47.071,5.62765,50.1047,-0.660591
block_1,2039,9,6290,1,-1.39155,46.9668,5.6721,50.0486,-0.660593
block_1,2040,9,6291,1,-1.8891,28.4345,5.62777,30.2008,-0.739924
block_1,2041,9,6292,1,-1.90702,28.3729,5.67294,30.1676,-0.739926
block_1,2042,9,6293,1,-3.49536,9.59316,5.67243,10.1871,-0.82021
block_1,2043,9,6294,1,-3.53065,9.57244,5.71796,10.1759,-0.820212
block_1,2044,9,6295,1,-1.92513,28.3108,5.71811,30.1341,-0.739928
block_1,2045,9,6296,1,-1.94344,28.2481,5.76328,30.1004,-0.73993
block_1,2046,9,6297,1,-3.56615,9.55156,5.76349,10.1646,-0.820214
block_1,2047,9,6298,1,-3.60188,9.53051,5.80902,10.1533,-0.820217
block_1,2048,9,6299,1,-0.0136805,290.08,0.354328,309.445,-0.00212893
block_1,2049,9,6300,1,-0.0136546,289.425,0.357152,309.092,-0.00212894
block_1,2050,9,6301,1,-0.0276814,271.324,1.0416,289.441,-0.0118149
block_1,2051,9,6302,1,-0.0277173,270.712,1.04976,289.111,-0.0118149
block_1,2052,9,6303,1,-0.0136284,288.765,0.359976,308.737,-0.00212894
block_1,2053,9,6304,1,-0.0136021,288.1,0.362799,308.378,-0.00212895
block_1,2054,9,6305,1,-0.0277537,270.095,1.05792,288.778,-0.011815
block_1,2055,9,6306,1,-0.0277908,269.473,1.06608,288.443,-0.011815
block_1,2056,9,6307,1,-0.0545797,252.58,1.68307,269.447,-0.030638
block_1,2057,9,6308,1,-0.0547423,252.009,1.69621,269.14,-0.0306381
block_1,2058,9,6309,1,-0.0938923,233.844,2.27874,249.463,-0.0579682
block_1,2059,9,6310,1,-0.0942488,233.316,2.29651,249.178,-0.0579684
block_1,2060,9,6311,1,-0.0549072,251.435,1.70935,268.83,-0.0306382
block_1,2061,9,6312,1,-0.0550743,250.856,1.72249,268.518,-0.0306383
block_1,2062,9,6313,1,-0.09461,232.784,2.31427,248.892,-0.0579686
block_1,2063,9,6314,1,-0.0949757,232.248,2.33204,248.603,-0.0579688
block_1,2064,9,6315,1,-0.0135757,287.431,0.365622,308.017,-0.00212896
block_1,2065,9,6316,1,-0.013549,286.756,0.368445,307.654,-0.00212896
block_1,2066,9,6317,1,-0.0278286,268.846,1.07424,288.105,-0.0118151
block_1,2067,9,6318,1,-0.0278669,268.215,1.0824,287.765,-0.0118151
block_1,2068,9,6319,1,-0.0135223,286.076,0.371267,307.287,-0.00212897
block_1,2069,9,6320,1,-0.0134953,285.391,0.374089,306.918,-0.00212898
block_1,2070,9,6321,1,-0.027906,267.579,1.09056,287.422,-0.0118151
block_1,2071,9,6322,1,-0.0279457,266.938,1.09872,287.077,-0.0118152
block_1,2072,9,6323,1,-0.0552436,250.272,1.73563,268.204,-0.0306384
block_1,2073,9,6324,1,-0.0554152,249.685,1.74877,267.887,-0.0306385
block_1,2074,9,6325,1,-0.0953462,231.708,2.34981,248.312,-0.057969
block_1,2075,9,6326,1,-0.0957214,231.164,2.36757,248.018,-0.0579692
block_1,2076,9,6327,1,-0.0555891,249.092,1.76191,267.568,-0.0306386
block_1,2077,9,6328,1,-0.0557654,248.496,1.77506,267.246,-0.0306387
block_1,2078,9,6329,1,-0.0961015,230.615,2.38534,247.723,-0.0579694
block_1,2079,9,6330,1,-0.0964864,230.063,2.40311,247.425,-0.0579696
block_1,2080,9,6331,1,-0.145244,215.118,2.82861,229.488,-0.0931759
block_1,2081,9,6332,1,-0.145865,214.632,2.85065,229.226,-0.0931762
block_1,2082,9,6333,1,-0.208416,196.4,3.33269,209.52,-0.135631
block_1,2083,9,6334,1,-0.209379,195.956,3.35864,209.281,-0.135631
block_1,2084,9,6335,1,-0.146494,214.143,2.87269,228.962,-0.0931764
block_1,2085,9,6336,1,-0.147131,213.649,2.89472,228.696,-0.0931767
block_1,2086,9,6337,1,-0.210354,195.509,3.38459,209.041,-0.135632
block_1,2087,9,6338,1,-0.211341,195.059,3.41054,208.798,-0.135632
block_1,2088,9,6339,1,-0.283433,177.689,3.79097,189.561,-0.184704
block_1,2089,9,6340,1,-0.284825,177.288,3.82048,189.345,-0.184704
block_1,2090,9,6341,1,-0.370699,158.985,4.20345,169.608,-0.239764
block_1,2091,9,6342,1,-0.372623,158.626,4.23616,169.414,-0.239765
block_1,2092,9,6343,1,-0.286234,176.883,3.84999,189.127,-0.184705
block_1,2093,9,6344,1,-0.287661,176.476,3.8795,188.907,-0.184705
block_1,2094,9,6345,1,-0.374571,158.264,4.26887,169.219,-0.239765
block_1,2095,9,6346,1,-0.376543,157.899,4.30159,169.023,-0.239766
block_1,2096,9,6347,1,-0.147776,213.152,2.91676,228.428,-0.093177
block_1,2097,9,6348,1,-0.148429,212.652,2.9388,228.159,-0.0931773
block_1,2098,9,6349,1,-0.212341,194.605,3.43649,208.553,-0.135633
block_1,2099,9,6350,1,-0.213353,194.148,3.46245,208.307,-0.135633
block_1,2100,9,6351,1,-0.149091,212.147,2.96083,227.887,-0.0931777
block_1,2101,9,6352,1,-0.14976,211.639,2.98287,227.613,-0.093178
block_1,2102,9,6353,1,-0.214378,193.687,3.4884,208.059,-0.135634
block_1,2103,9,6354,1,-0.215415,193.223,3.51435,207.809,-0.135634
block_1,2104,9,6355,1,-0.289106,176.065,3.90901,188.686,-0.184706
block_1,2105,9,6356,1,-0.290568,175.651,3.93852,188.463,-0.184707
block_1,2106,9,6357,1,-0.37854,157.532,4.3343,168.825,-0.239767
block_1,2107,9,6358,1,-0.380561,157.161,4.36701,168.625,-0.239768
block_1,2108,9,6359,1,-0.292049,175.234,3.96803,188.238,-0.184707
block_1,2109,9,6360,1,-0.293548,174.814,3.99754,188.012,-0.184708
block_1,2110,9,6361,1,-0.382608,156.788,4.39972,168.424,-0.239768
block_1,2111,9,6362,1,-0.384679,156.413,4.43244,168.222,-0.239769
block_1,2112,9,6363,1,-0.0134682,284.701,0.37691,306.546,-0.00212898
block_1,2113,9,6364,1,-0.013441,284.005,0.379731,306.172,-0.00212899
block_1,2114,9,6365,1,-0.027986,266.292,1.10687,286.729,-0.0118152
block_1,2115,9,6366,1,-0.0280271,265.642,1.11503,286.379,-0.0118153
block_1,2116,9,6367,1,-0.0134136,283.305,0.382551,305.795,-0.002129
block_1,2117,9,6368,1,-0.0133861,282.6,0.385371,305.414,-0.00212901
block_1,2118,9,6369,1,-0.0280688,264.987,1.12319,286.026,-0.0118153
block_1,2119,9,6370,1,-0.0281113,264.327,1.13135,285.67,-0.0118153
block_1,2120,9,6371,1,-0.055944,247.894,1.7882,266.922,-0.0306388
block_1,2121,9,6372,1,-0.056125,247.289,1.80134,266.596,-0.0306389
block_1,2122,9,6373,1,-0.0968763,229.506,2.42087,247.125,-0.0579697
block_1,2123,9,6374,1,-0.0972712,228.945,2.43864,246.823,-0.0579699
block_1,2124,9,6375,1,-0.0563085,246.679,1.81448,266.268,-0.030639
block_1,2125,9,6376,1,-0.0564944,246.065,1.82762,265.937,-0.0306391
block_1,2126,9,6377,1,-0.0976712,228.381,2.45641,246.519,-0.0579701
block_1,2127,9,6378,1,-0.0980763,227.812,2.47417,246.212,-0.0579703
block_1,2128,9,6379,1,-0.0133584,281.89,0.388191,305.032,-0.00212901
block_1,2129,9,6380,1,-0.0133306,281.174,0.39101,304.646,-0.00212902
block_1,2130,9,6381,1,-0.0281545,263.663,1.13951,285.312,-0.0118154
block_1,2131,9,6382,1,-0.0281984,262.993,1.14766,284.952,-0.0118154
block_1,2132,9,6383,1,-0.0133026,280.454,0.393829,304.258,-0.00212903
block_1,2133,9,6384,1,-0.0132745,279.728,0.396647,303.867,-0.00212904
block_1,2134,9,6385,1,-0.0282431,262.319,1.15582,284.589,-0.0118155
block_1,2135,9,6386,1,-0.0282886,261.641,1.16398,284.223,-0.0118155
block_1,2136,9,6387,1,-0.0566828,245.446,1.84076,265.603,-0.0306392
block_1,2137,9,6388,1,-0.0568737,244.823,1.85389,265.267,-0.0306393
block_1,2138,9,6389,1,-0.0984866,227.239,2.49194,245.904,-0.0579705
block_1,2139,9,6390,1,-0.0989021,226.662,2.5097,245.593,-0.0579707
block_1,2140,9,6391,1,-0.0570672,244.195,1.86703,264.929,-0.0306394
block_1,2141,9,6392,1,-0.0572633,243.563,1.88017,264.589,-0.0306395
block_1,2142,9,6393,1,-0.099323,226.081,2.52747,245.28,-0.0579709
block_1,2143,9,6394,1,-0.0997493,225.496,2.54524,244.964,-0.0579711
block_1,2144,9,6395,1,-0.150439,211.127,3.00491,227.337,-0.0931783
block_1,2145,9,6396,1,-0.151126,210.611,3.02694,227.059,-0.0931786
block_1,2146,9,6397,1,-0.216466,192.755,3.5403,207.557,-0.135634
block_1,2147,9,6398,1,-0.21753,192.284,3.56625,207.303,-0.135635
block_1,2148,9,6399,1,-0.151821,210.091,3.04898,226.779,-0.0931789
block_1,2149,9,6400,1,-0.152525,209.568,3.07102,226.497,-0.0931792
block_1,2150,9,6401,1,-0.218607,191.81,3.5922,207.047,-0.135635
block_1,2151,9,6402,1,-0.219697,191.332,3.61815,206.79,-0.135636
block_1,2152,9,6403,1,-0.295066,174.391,4.02705,187.784,-0.184708
block_1,2153,9,6404,1,-0.296603,173.965,4.05656,187.554,-0.184709
block_1,2154,9,6405,1,-0.386777,156.034,4.46515,168.018,-0.23977
block_1,2155,9,6406,1,-0.3889,155.653,4.49786,167.812,-0.239771
block_1,2156,9,6407,1,-0.298158,173.536,4.08607,187.323,-0.18471
block_1,2157,9,6408,1,-0.299734,173.103,4.11558,187.09,-0.18471
block_1,2158,9,6409,1,-0.39105,155.269,4.53058,167.605,-0.239772
block_1,2159,9,6410,1,-0.393227,154.882,4.56329,167.397,-0.239772
block_1,2160,9,6411,1,-0.153238,209.041,3.09305,226.213,-0.0931795
block_1,2161,9,6412,1,-0.153961,208.51,3.11509,225.927,-0.0931798
block_1,2162,9,6413,1,-0.220801,190.851,3.64411,206.53,-0.135636
block_1,2163,9,6414,1,-0.221919,190.366,3.67006,206.269,-0.135637
block_1,2164,9,6415,1,-0.154692,207.975,3.13713,225.639,-0.0931802
block_1,2165,9,6416,1,-0.155432,207.437,3.15916,225.349,-0.0931805
block_1,2166,9,6417,1,-0.223051,189.878,3.69601,206.006,-0.135637
block_1,2167,9,6418,1,-0.224197,189.386,3.72196,205.741,-0.135638
block_1,2168,9,6419,1,-0.301328,172.668,4.14509,186.855,-0.184711
block_1,2169,9,6420,1,-0.302943,172.229,4.1746,186.619,-0.184711
block_1,2170,9,6421,1,-0.39543,154.492,4.59601,167.187,-0.239773
block_1,2171,9,6422,1,-0.39766,154.099,4.62872,166.975,-0.239774
block_1,2172,9,6423,1,-0.304578,171.788,4.20411,186.381,-0.184712
block_1,2173,9,6424,1,-0.306232,171.343,4.23362,186.141,-0.184713
block_1,2174,9,6425,1,-0.399919,153.704,4.66144,166.762,-0.239775
block_1,2175,9,6426,1,-0.402205,153.306,4.69415,166.548,-0.239776
block_1,2176,9,6427,1,-0.471249,140.287,4.57013,149.661,-0.300182
block_1,2177,9,6428,1,-0.473835,139.97,4.60569,149.49,-0.300183
block_1,2178,9,6429,1,-0.587225,121.594,4.89101,129.719,-0.365328
block_1,2179,9,6430,1,-0.590645,121.319,4.92906,129.571,-0.365329
block_1,2180,9,6431,1,-0.476452,139.65,4.64125,149.318,-0.300184
block_1,2181,9,6432,1,-0.479102,139.329,4.67681,149.145,-0.300185
block_1,2182,9,6433,1,-0.594107,121.042,4.96712,129.422,-0.365331
block_1,2183,9,6434,1,-0.597611,120.763,5.00517,129.272,-0.365332
block_1,2184,9,6435,1,-0.722856,102.906,5.1661,109.782,-0.434573
block_1,2185,9,6436,1,-0.727359,102.673,5.20629,109.657,-0.434574
block_1,2186,9,6437,1,-0.886701,84.2215,5.39539,89.8493,-0.507285
block_1,2187,9,6438,1,-0.892676,84.0313,5.43735,89.7468,-0.507286
block_1,2188,9,6439,1,-0.731916,102.439,5.24647,109.531,-0.434575
block_1,2189,9,6440,1,-0.73653,102.203,5.28666,109.404,-0.434577
block_1,2190,9,6441,1,-0.898724,83.8395,5.47932,89.6434,-0.507288
block_1,2191,9,6442,1,-0.904847,83.6463,5.52129,89.5393,-0.50729
block_1,2192,9,6443,1,-0.481785,139.004,4.71237,148.97,-0.300186
block_1,2193,9,6444,1,-0.484501,138.678,4.74793,148.794,-0.300187
block_1,2194,9,6445,1,-0.601159,120.482,5.04322,129.12,-0.365333
block_1,2195,9,6446,1,-0.604751,120.199,5.08127,128.968,-0.365334
block_1,2196,9,6447,1,-0.48725,138.348,4.78349,148.617,-0.300188
block_1,2197,9,6448,1,-0.490034,138.017,4.81905,148.438,-0.300189
block_1,2198,9,6449,1,-0.608387,119.914,5.11932,128.814,-0.365335
block_1,2199,9,6450,1,-0.612067,119.626,5.15738,128.659,-0.365336
block_1,2200,9,6451,1,-0.741201,101.965,5.32685,109.275,-0.434578
block_1,2201,9,6452,1,-0.745928,101.725,5.36704,109.146,-0.434579
block_1,2202,9,6453,1,-0.911044,83.4517,5.56326,89.4344,-0.507291
block_1,2203,9,6454,1,-0.917316,83.2555,5.60522,89.3288,-0.507293
block_1,2204,9,6455,1,-0.750714,101.484,5.40722,109.016,-0.434581
block_1,2205,9,6456,1,-0.755558,101.241,5.44741,108.885,-0.434582
block_1,2206,9,6457,1,-0.923665,83.0579,5.64719,89.2223,-0.507294
block_1,2207,9,6458,1,-0.93009,82.8588,5.68916,89.115,-0.507296
block_1,2208,9,6459,1,-1.09752,65.5404,5.57887,69.9194,-0.582836
block_1,2209,9,6460,1,-1.10565,65.3924,5.62227,69.8396,-0.582837
block_1,2210,9,6461,1,-1.4031,46.8618,5.71656,49.992,-0.660595
block_1,2211,9,6462,1,-1.41478,46.756,5.76103,49.935,-0.660597
block_1,2212,9,6463,1,-1.11389,65.2432,5.66566,69.7592,-0.582839
block_1,2213,9,6464,1,-1.12222,65.0929,5.70905,69.6782,-0.582841
block_1,2214,9,6465,1,-1.42659,46.6494,5.80549,49.8775,-0.660599
block_1,2215,9,6466,1,-1.43855,46.5419,5.84995,49.8196,-0.660601
block_1,2216,9,6467,1,-1.96195,28.185,5.80846,30.0664,-0.739933
block_1,2217,9,6468,1,-1.98066,28.1214,5.85363,30.0321,-0.739935
block_1,2218,9,6469,1,-3.63784,9.50929,5.85455,10.1419,-0.820219
block_1,2219,9,6470,1,-3.67401,9.48791,5.90008,10.1303,-0.820221
block_1,2220,9,6471,1,-1.99957,28.0573,5.8988,29.9976,-0.739937
block_1,2221,9,6472,1,-2.01869,27.9928,5.94398,29.9628,-0.739939
block_1,2222,9,6473,1,-3.71041,9.46637,5.94561,10.1187,-0.820224
block_1,2223,9,6474,1,-3.74703,9.44466,5.99115,10.107,-0.820226
block_1,2224,9,6475,1,-1.13065,64.9414,5.75244,69.5966,-0.582843
block_1,2225,9,6476,1,-1.13918,64.7888,5.79584,69.5144,-0.582845
block_1,2226,9,6477,1,-1.45064,46.4337,5.89441,49.7613,-0.660603
block_1,2227,9,6478,1,-1.46288,46.3246,5.93887,49.7025,-0.660605
block_1,2228,9,6479,1,-1.14781,64.6351,5.83923,69.4315,-0.582846
block_1,2229,9,6480,1,-1.15655,64.4802,5.88262,69.3481,-0.582848
block_1,2230,9,6481,1,-1.47526,46.2147,5.98333,49.6433,-0.660607
block_1,2231,9,6482,1,-1.48778,46.104,6.0278,49.5836,-0.660609
block_1,2232,9,6483,1,-2.03801,27.9277,5.98915,29.9277,-0.739941
block_1,2233,9,6484,1,-2.05753,27.8621,6.03433,29.8924,-0.739944
block_1,2234,9,6485,1,-3.78387,9.42278,6.03668,10.0952,-0.820229
block_1,2235,9,6486,1,-3.82092,9.40074,6.08221,10.0834,-0.820231
block_1,2236,9,6487,1,-2.07726,27.7961,6.07951,29.8568,-0.739946
block_1,2237,9,6488,1,-2.0972,27.7295,6.12468,29.8209,-0.739948
block_1,2238,9,6489,1,-3.85819,9.37853,6.12775,10.0714,-0.820234
block_1,2239,9,6490,1,-3.89568,9.35616,6.17328,10.0593,-0.820236
block_1,2240,9,6491,1,-0.492852,137.683,4.85461,148.258,-0.30019
block_1,2241,9,6492,1,-0.495704,137.346,4.89017,148.076,-0.300191
block_1,2242,9,6493,1,-0.615793,119.337,5.19543,128.503,-0.365337
block_1,2243,9,6494,1,-0.619565,119.045,5.23348,128.346,-0.365339
block_1,2244,9,6495,1,-0.498592,137.007,4.92573,147.894,-0.300192
block_1,2245,9,6496,1,-0.501515,136.666,4.9613,147.71,-0.300193
block_1,2246,9,6497,1,-0.623383,118.751,5.27154,128.188,-0.36534
block_1,2247,9,6498,1,-0.627248,118.455,5.30959,128.028,-0.365341
block_1,2248,9,6499,1,-0.760462,100.996,5.4876,108.753,-0.434583
block_1,2249,9,6500,1,-0.765426,100.749,5.52779,108.62,-0.434585
block_1,2250,9,6501,1,-0.936594,82.6583,5.73113,89.0069,-0.507297
block_1,2251,9,6502,1,-0.943177,82.4563,5.7731,88.8981,-0.507299
block_1,2252,9,6503,1,-0.77045,100.5,5.56798,108.486,-0.434586
block_1,2253,9,6504,1,-0.775535,100.25,5.60817,108.351,-0.434588
block_1,2254,9,6505,1,-0.94984,82.2528,5.81507,88.7884,-0.507301
block_1,2255,9,6506,1,-0.956583,82.0478,5.85704,88.678,-0.507302
block_1,2256,9,6507,1,-0.504475,136.322,4.99686,147.525,-0.300194
block_1,2257,9,6508,1,-0.507471,135.976,5.03242,147.338,-0.300195
block_1,2258,9,6509,1,-0.63116,118.157,5.34764,127.868,-0.365342
block_1,2259,9,6510,1,-0.635121,117.857,5.3857,127.706,-0.365343
block_1,2260,9,6511,1,-0.510504,135.627,5.06798,147.15,-0.300196
block_1,2261,9,6512,1,-0.513574,135.276,5.10355,146.961,-0.300197
block_1,2262,9,6513,1,-0.63913,117.555,5.42375,127.543,-0.365345
block_1,2263,9,6514,1,-0.643188,117.25,5.46181,127.379,-0.365346
block_1,2264,9,6515,1,-0.780683,99.9974,5.64836,108.215,-0.434589
block_1,2265,9,6516,1,-0.785893,99.7434,5.68855,108.078,-0.43459
block_1,2266,9,6517,1,-0.963408,81.8413,5.89901,88.5667,-0.507304
block_1,2267,9,6518,1,-0.970315,81.6334,5.94099,88.4547,-0.507306
block_1,2268,9,6519,1,-0.791167,99.4875,5.72874,107.94,-0.434592
block_1,2269,9,6520,1,-0.796506,99.2299,5.76894,107.802,-0.434593
block_1,2270,9,6521,1,-0.977306,81.424,5.98296,88.3419,-0.507307
block_1,2271,9,6522,1,-0.984382,81.2132,6.02493,88.2283,-0.507309
block_1,2272,9,6523,1,-1.16539,64.3241,5.92602,69.264,-0.58285
block_1,2273,9,6524,1,-1.17434,64.1669,5.96941,69.1793,-0.582852
block_1,2274,9,6525,1,-1.50045,45.9924,6.07226,49.5235,-0.660611
block_1,2275,9,6526,1,-1.51327,45.88,6.11672,49.463,-0.660613
block_1,2276,9,6527,1,-1.18339,64.0086,6.01281,69.094,-0.582854
block_1,2277,9,6528,1,-1.19256,63.8491,6.0562,69.008,-0.582856
block_1,2278,9,6529,1,-1.52623,45.7669,6.16119,49.402,-0.660615
block_1,2279,9,6530,1,-1.53934,45.6529,6.20565,49.3405,-0.660617
block_1,2280,9,6531,1,-2.11735,27.6625,6.16986,29.7848,-0.73995
block_1,2281,9,6532,1,-2.13771,27.595,6.21504,29.7484,-0.739953
block_1,2282,9,6533,1,-3.93338,9.33363,6.21881,10.0472,-0.820239
block_1,2283,9,6534,1,-3.9713,9.31092,6.26435,10.0349,-0.820241
block_1,2284,9,6535,1,-2.15829,27.5269,6.26021,29.7118,-0.739955
block_1,2285,9,6536,1,-2.17908,27.4584,6.30539,29.6748,-0.739957
block_1,2286,9,6537,1,-4.00943,9.28806,6.30989,10.0226,-0.820244
block_1,2287,9,6538,1,-4.04777,9.26502,6.35542,10.0102,-0.820246
block_1,2288,9,6539,1,-1.20183,63.6885,6.0996,68.9215,-0.582857
block_1,2289,9,6540,1,-1.21121,63.5267,6.143,68.8343,-0.582859
block_1,2290,9,6541,1,-1.55261,45.538,6.25012,49.2787,-0.660619
block_1,2291,9,6542,1,-1.56603,45.4224,6.29458,49.2164,-0.660621
block_1,2292,9,6543,1,-1.22071,63.3638,6.18639,68.7465,-0.582861
block_1,2293,9,6544,1,-1.23031,63.1997,6.22979,68.6581,-0.582863
block_1,2294,9,6545,1,-1.5796,45.3059,6.33905,49.1536,-0.660624
block_1,2295,9,6546,1,-1.59332,45.1887,6.38352,49.0904,-0.660626
block_1,2296,9,6547,1,-2.20009,27.3894,6.35057,29.6377,-0.73996
block_1,2297,9,6548,1,-2.22131,27.3199,6.39575,29.6002,-0.739962
block_1,2298,9,6549,1,-4.08632,9.24183,6.40096,9.99771,-0.820249
block_1,2299,9,6550,1,-4.12508,9.21846,6.44649,9.98512,-0.820251
block_1,2300,9,6551,1,-2.24276,27.2499,6.44093,29.5625,-0.739964
block_1,2301,9,6552,1,-2.26443,27.1794,6.48611,29.5245,-0.739967
block_1,2302,9,6553,1,-4.16406,9.19494,6.49203,9.97244,-0.820254
block_1,2303,9,6554,1,-4.20324,9.17124,6.53757,9.95967,-0.820257
block_1,2304,9,6555,1,-0.0132462,278.997,0.399466,303.473,-0.00212904
block_1,2305,9,6556,1,-0.0132178,278.262,0.402283,303.077,-0.00212905
block_1,2306,9,6557,1,-0.0283348,260.957,1.17213,283.855,-0.0118155
block_1,2307,9,6558,1,-0.0283818,260.269,1.18029,283.484,-0.0118156
block_1,2308,9,6559,1,-0.0131893,277.521,0.405101,302.678,-0.00212906
block_1,2309,9,6560,1,-0.0131606,276.775,0.407918,302.276,-0.00212907
block_1,2310,9,6561,1,-0.0284296,259.576,1.18845,283.11,-0.0118156
block_1,2311,9,6562,1,-0.0284782,258.878,1.1966,282.734,-0.0118157
block_1,2312,9,6563,1,-0.057462,242.927,1.89331,264.246,-0.0306396
block_1,2313,9,6564,1,-0.0576634,242.286,1.90645,263.901,-0.0306397
block_1,2314,9,6565,1,-0.100181,224.906,2.563,244.647,-0.0579713
block_1,2315,9,6566,1,-0.100618,224.313,2.58077,244.327,-0.0579715
block_1,2316,9,6567,1,-0.0578676,241.641,1.91959,263.553,-0.0306398
block_1,2317,9,6568,1,-0.0580744,240.991,1.93273,263.203,-0.0306399
block_1,2318,9,6569,1,-0.101061,223.715,2.59853,244.005,-0.0579718
block_1,2319,9,6570,1,-0.10151,223.114,2.6163,243.681,-0.057972
block_1,2320,9,6571,1,-0.0131318,276.024,0.410735,301.872,-0.00212907
block_1,2321,9,6572,1,-0.0131029,275.268,0.413551,301.464,-0.00212908
block_1,2322,9,6573,1,-0.0285276,258.176,1.20476,282.356,-0.0118157
block_1,2323,9,6574,1,-0.0285779,257.468,1.21291,281.975,-0.0118158
block_1,2324,9,6575,1,-0.0130738,274.507,0.416367,301.054,-0.00212909
block_1,2325,9,6576,1,-0.0130446,273.741,0.419183,300.641,-0.0021291
block_1,2326,9,6577,1,-0.028629,256.756,1.22107,281.591,-0.0118158
block_1,2327,9,6578,1,-0.028681,256.04,1.22922,281.205,-0.0118158
block_1,2328,9,6579,1,-0.058284,240.337,1.94587,262.851,-0.0306401
block_1,2329,9,6580,1,-0.0584965,239.679,1.959,262.496,-0.0306402
block_1,2330,9,6581,1,-0.101964,222.508,2.63406,243.355,-0.0579722
block_1,2331,9,6582,1,-0.102425,221.899,2.65183,243.026,-0.0579724
block_1,2332,9,6583,1,-0.0587118,239.016,1.97214,262.139,-0.0306403
block_1,2333,9,6584,1,-0.0589301,238.348,1.98528,261.779,-0.0306404
block_1,2334,9,6585,1,-0.102891,221.285,2.66959,242.696,-0.0579726
block_1,2335,9,6586,1,-0.103363,220.667,2.68736,242.363,-0.0579728
block_1,2336,9,6587,1,-0.156182,206.895,3.1812,225.057,-0.0931808
block_1,2337,9,6588,1,-0.156941,206.349,3.20324,224.762,-0.0931811
block_1,2338,9,6589,1,-0.225358,188.891,3.74791,205.475,-0.135638
block_1,2339,9,6590,1,-0.226533,188.392,3.77386,205.206,-0.135639
block_1,2340,9,6591,1,-0.15771,205.799,3.22527,224.466,-0.0931815
block_1,2341,9,6592,1,-0.158489,205.245,3.24731,224.168,-0.0931818
block_1,2342,9,6593,1,-0.227722,187.891,3.79982,204.936,-0.135639
block_1,2343,9,6594,1,-0.228927,187.385,3.82577,204.663,-0.13564
block_1,2344,9,6595,1,-0.307908,170.895,4.26313,185.9,-0.184713
block_1,2345,9,6596,1,-0.309604,170.444,4.29265,185.657,-0.184714
block_1,2346,9,6597,1,-0.404519,152.905,4.72687,166.332,-0.239777
block_1,2347,9,6598,1,-0.406862,152.502,4.75958,166.115,-0.239777
block_1,2348,9,6599,1,-0.311322,169.99,4.32216,185.412,-0.184715
block_1,2349,9,6600,1,-0.31306,169.532,4.35167,185.166,-0.184715
block_1,2350,9,6601,1,-0.409234,152.095,4.7923,165.896,-0.239778
block_1,2351,9,6602,1,-0.411635,151.686,4.82501,165.675,-0.239779
block_1,2352,9,6603,1,-0.159277,204.688,3.26935,223.868,-0.0931821
block_1,2353,9,6604,1,-0.160076,204.127,3.29138,223.566,-0.0931825
block_1,2354,9,6605,1,-0.230146,186.876,3.85172,204.389,-0.13564
block_1,2355,9,6606,1,-0.231381,186.364,3.87767,204.113,-0.135641
block_1,2356,9,6607,1,-0.160884,203.563,3.31342,223.261,-0.0931828
block_1,2357,9,6608,1,-0.161703,202.994,3.33546,222.955,-0.0931832
block_1,2358,9,6609,1,-0.232631,185.849,3.90362,203.835,-0.135641
block_1,2359,9,6610,1,-0.233897,185.329,3.92958,203.556,-0.135642
block_1,2360,9,6611,1,-0.314821,169.072,4.38118,184.918,-0.184716
block_1,2361,9,6612,1,-0.316603,168.609,4.41069,184.668,-0.184717
block_1,2362,9,6613,1,-0.414066,151.274,4.85773,165.453,-0.23978
block_1,2363,9,6614,1,-0.416528,150.86,4.89044,165.23,-0.239781
block_1,2364,9,6615,1,-0.318407,168.142,4.4402,184.417,-0.184717
block_1,2365,9,6616,1,-0.320234,167.672,4.46972,184.164,-0.184718
block_1,2366,9,6617,1,-0.419019,150.442,4.92316,165.005,-0.239782
block_1,2367,9,6618,1,-0.421542,150.022,4.95588,164.779,-0.239782
block_1,2368,9,6619,1,-0.0130152,272.97,0.421999,300.226,-0.00212911
block_1,2369,9,6620,1,-0.0129858,272.194,0.424814,299.808,-0.00212911
block_1,2370,9,6621,1,-0.0287339,255.318,1.23738,280.816,-0.0118159
block_1,2371,9,6622,1,-0.0287877,254.592,1.24553,280.425,-0.0118159
block_1,2372,9,6623,1,-0.0129562,271.412,0.427629,299.387,-0.00212912
block_1,2373,9,6624,1,-0.0129265,270.626,0.430443,298.963,-0.00212913
block_1,2374,9,6625,1,-0.0288424,253.861,1.25368,280.031,-0.011816
block_1,2375,9,6626,1,-0.0288981,253.125,1.26184,279.635,-0.011816
block_1,2376,9,6627,1,-0.0591513,237.677,1.99842,261.417,-0.0306405
block_1,2377,9,6628,1,-0.0593754,237.001,2.01155,261.053,-0.0306406
block_1,2378,9,6629,1,-0.103841,220.045,2.70512,242.028,-0.057973
block_1,2379,9,6630,1,-0.104326,219.419,2.72289,241.69,-0.0579732
block_1,2380,9,6631,1,-0.0596027,236.32,2.02469,260.686,-0.0306407
block_1,2381,9,6632,1,-0.0598329,235.635,2.03783,260.317,-0.0306409
block_1,2382,9,6633,1,-0.104816,218.789,2.74065,241.351,-0.0579735
block_1,2383,9,6634,1,-0.105313,218.154,2.75842,241.009,-0.0579737
block_1,2384,9,6635,1,-0.0128967,269.835,0.433258,298.537,-0.00212914
block_1,2385,9,6636,1,-0.0128667,269.038,0.436072,298.108,-0.00212915
block_1,2386,9,6637,1,-0.0289547,252.385,1.26999,279.236,-0.0118161
block_1,2387,9,6638,1,-0.0290122,251.64,1.27815,278.835,-0.0118161
block_1,2388,9,6639,1,-0.0128366,268.236,0.438886,297.676,-0.00212916
block_1,2389,9,6640,1,-0.0128065,267.43,0.441699,297.241,-0.00212916
block_1,2390,9,6641,1,-0.0290708,250.89,1.2863,278.431,-0.0118162
block_1,2391,9,6642,1,-0.0291303,250.135,1.29445,278.024,-0.0118162
block_1,2392,9,6643,1,-0.0600663,234.946,2.05097,259.946,-0.030641
block_1,2393,9,6644,1,-0.0603029,234.252,2.0641,259.572,-0.0306411
block_1,2394,9,6645,1,-0.105817,217.516,2.77618,240.665,-0.0579739
block_1,2395,9,6646,1,-0.106327,216.874,2.79395,240.319,-0.0579741
block_1,2396,9,6647,1,-0.0605427,233.554,2.07724,259.196,-0.0306412
block_1,2397,9,6648,1,-0.0607858,232.851,2.09038,258.818,-0.0306413
block_1,2398,9,6649,1,-0.106843,216.227,2.81171,239.971,-0.0579744
block_1,2399,9,6650,1,-0.107367,215.577,2.82948,239.62,-0.0579746
block_1,2400,9,6651,1,-0.162532,202.422,3.35749,222.647,-0.0931835
block_1,2401,9,6652,1,-0.163371,201.846,3.37953,222.337,-0.0931839
block_1,2402,9,6653,1,-0.235179,184.807,3.95553,203.274,-0.135642
block_1,2403,9,6654,1,-0.236477,184.281,3.98148,202.991,-0.135643
block_1,2404,9,6655,1,-0.164221,201.266,3.40157,222.024,-0.0931842
block_1,2405,9,6656,1,-0.165082,200.683,3.4236,221.71,-0.0931846
block_1,2406,9,6657,1,-0.237791,183.752,4.00744,202.706,-0.135643
block_1,2407,9,6658,1,-0.239121,183.219,4.03339,202.419,-0.135644
block_1,2408,9,6659,1,-0.322084,167.2,4.49923,183.909,-0.184719
block_1,2409,9,6660,1,-0.323957,166.724,4.52874,183.653,-0.184719
block_1,2410,9,6661,1,-0.424096,149.599,4.98859,164.551,-0.239783
block_1,2411,9,6662,1,-0.426681,149.173,5.02131,164.321,-0.239784
block_1,2412,9,6663,1,-0.325853,166.245,4.55825,183.395,-0.18472
block_1,2413,9,6664,1,-0.327773,165.763,4.58777,183.135,-0.184721
block_1,2414,9,6665,1,-0.429299,148.744,5.05403,164.09,-0.239785
block_1,2415,9,6666,1,-0.431949,148.313,5.08675,163.858,-0.239786
block_1,2416,9,6667,1,-0.165954,200.095,3.44564,221.393,-0.0931849
block_1,2417,9,6668,1,-0.166837,199.504,3.46768,221.075,-0.0931853
block_1,2418,9,6669,1,-0.240469,182.683,4.05934,202.13,-0.135644
block_1,2419,9,6670,1,-0.241833,182.143,4.08529,201.839,-0.135645
block_1,2420,9,6671,1,-0.167732,198.909,3.48972,220.755,-0.0931856
block_1,2421,9,6672,1,-0.168637,198.311,3.51175,220.432,-0.093186
block_1,2422,9,6673,1,-0.243215,181.6,4.11125,201.546,-0.135645
block_1,2423,9,6674,1,-0.244614,181.053,4.1372,201.252,-0.135646
block_1,2424,9,6675,1,-0.329717,165.277,4.61728,182.873,-0.184721
block_1,2425,9,6676,1,-0.331685,164.789,4.64679,182.61,-0.184722
block_1,2426,9,6677,1,-0.434633,147.879,5.11946,163.624,-0.239787
block_1,2427,9,6678,1,-0.43735,147.442,5.15218,163.389,-0.239788
block_1,2428,9,6679,1,-0.333678,164.298,4.67631,182.346,-0.184723
block_1,2429,9,6680,1,-0.335696,163.803,4.70582,182.079,-0.184723
block_1,2430,9,6681,1,-0.4401,147.002,5.1849,163.152,-0.239789
block_1,2431,9,6682,1,-0.442885,146.56,5.21762,162.913,-0.23979
block_1,2432,9,6683,1,-0.516682,134.922,5.13911,146.77,-0.300198
block_1,2433,9,6684,1,-0.519828,134.566,5.17467,146.578,-0.300199
block_1,2434,9,6685,1,-0.647296,116.944,5.49986,127.214,-0.365347
block_1,2435,9,6686,1,-0.651454,116.635,5.53792,127.047,-0.365348
block_1,2436,9,6687,1,-0.523013,134.207,5.21024,146.385,-0.3002
block_1,2437,9,6688,1,-0.526238,133.846,5.2458,146.191,-0.300201
block_1,2438,9,6689,1,-0.655663,116.324,5.57597,126.88,-0.36535
block_1,2439,9,6690,1,-0.659924,116.011,5.61403,126.711,-0.365351
block_1,2440,9,6691,1,-0.801909,98.9704,5.80913,107.662,-0.434595
block_1,2441,9,6692,1,-0.807378,98.7092,5.84932,107.521,-0.434596
block_1,2442,9,6693,1,-0.991543,81.0008,6.0669,88.1139,-0.507311
block_1,2443,9,6694,1,-0.99879,80.787,6.10887,87.9987,-0.507312
block_1,2444,9,6695,1,-0.812914,98.4461,5.88951,107.379,-0.434598
block_1,2445,9,6696,1,-0.818518,98.1813,5.9297,107.237,-0.434599
block_1,2446,9,6697,1,-1.00613,80.5718,6.15085,87.8827,-0.507314
block_1,2447,9,6698,1,-1.01355,80.355,6.19282,87.7659,-0.507316
block_1,2448,9,6699,1,-0.529502,133.483,5.28136,145.995,-0.300202
block_1,2449,9,6700,1,-0.532806,133.117,5.31693,145.798,-0.300203
block_1,2450,9,6701,1,-0.664237,115.696,5.65209,126.542,-0.365352
block_1,2451,9,6702,1,-0.668603,115.379,5.69014,126.371,-0.365354
block_1,2452,9,6703,1,-0.536151,132.748,5.35249,145.599,-0.300204
block_1,2453,9,6704,1,-0.539538,132.377,5.38806,145.399,-0.300205
block_1,2454,9,6705,1,-0.673023,115.06,5.7282,126.199,-0.365355
block_1,2455,9,6706,1,-0.677497,114.738,5.76626,126.025,-0.365356
block_1,2456,9,6707,1,-0.82419,97.9146,5.9699,107.093,-0.434601
block_1,2457,9,6708,1,-0.829931,97.6462,6.01009,106.948,-0.434602
block_1,2458,9,6709,1,-1.02106,80.1368,6.2348,87.6483,-0.507318
block_1,2459,9,6710,1,-1.02867,79.9171,6.27677,87.53,-0.507319
block_1,2460,9,6711,1,-0.835742,97.3759,6.05028,106.803,-0.434604
block_1,2461,9,6712,1,-0.841624,97.1039,6.09048,106.656,-0.434605
block_1,2462,9,6713,1,-1.03636,79.6959,6.31874,87.4108,-0.507321
block_1,2463,9,6714,1,-1.04415,79.4733,6.36072,87.2909,-0.507323
block_1,2464,9,6715,1,-1.24004,63.0345,6.27319,68.5691,-0.582865
block_1,2465,9,6716,1,-1.24987,62.8681,6.31659,68.4795,-0.582867
block_1,2466,9,6717,1,-1.60721,45.0706,6.42798,49.0268,-0.660628
block_1,2467,9,6718,1,-1.62126,44.9517,6.47245,48.9627,-0.66063
block_1,2468,9,6719,1,-1.25983,62.7006,6.35998,68.3892,-0.582869
block_1,2469,9,6720,1,-1.2699,62.5319,6.40338,68.2983,-0.582871
block_1,2470,9,6721,1,-1.63546,44.8319,6.51692,48.8982,-0.660632
block_1,2471,9,6722,1,-1.64983,44.7114,6.56139,48.8333,-0.660635
block_1,2472,9,6723,1,-2.28632,27.1084,6.53129,29.4863,-0.739969
block_1,2473,9,6724,1,-2.30843,27.037,6.57647,29.4478,-0.739972
block_1,2474,9,6725,1,-4.24262,9.14739,6.58311,9.94682,-0.820259
block_1,2475,9,6726,1,-4.28222,9.12336,6.62865,9.93387,-0.820262
block_1,2476,9,6727,1,-2.33078,26.965,6.62165,29.409,-0.739974
block_1,2477,9,6728,1,-2.35335,26.8926,6.66683,29.37,-0.739977
block_1,2478,9,6729,1,-4.32202,9.09917,6.67418,9.92083,-0.820265
block_1,2479,9,6730,1,-4.36203,9.07482,6.71972,9.90771,-0.820267
block_1,2480,9,6731,1,-1.28009,62.3622,6.44678,68.2069,-0.582873
block_1,2481,9,6732,1,-1.29041,62.1912,6.49018,68.1148,-0.582875
block_1,2482,9,6733,1,-1.66436,44.59,6.60585,48.7679,-0.660637
block_1,2483,9,6734,1,-1.67906,44.4678,6.65032,48.702,-0.660639
block_1,2484,9,6735,1,-1.30084,62.0191,6.53358,68.022,-0.582877
block_1,2485,9,6736,1,-1.3114,61.8459,6.57698,67.9287,-0.582879
block_1,2486,9,6737,1,-1.69393,44.3448,6.69479,48.6358,-0.660641
block_1,2487,9,6738,1,-1.70896,44.221,6.73926,48.569,-0.660644
block_1,2488,9,6739,1,-2.37615,26.8196,6.71201,29.3306,-0.739979
block_1,2489,9,6740,1,-2.39918,26.7462,6.7572,29.2911,-0.739982
block_1,2490,9,6741,1,-4.40224,9.0503,6.76526,9.8945,-0.82027
block_1,2491,9,6742,1,-4.44265,9.02562,6.8108,9.8812,-0.820273
block_1,2492,9,6743,1,-2.42244,26.6722,6.80238,29.2512,-0.739984
block_1,2493,9,6744,1,-2.44595,26.5978,6.84756,29.2112,-0.739987
block_1,2494,9,6745,1,-4.48327,9.00077,6.85634,9.86781,-0.820276
block_1,2495,9,6746,1,-4.52408,8.97575,6.90188,9.85433,-0.820278
block_1,2496,9,6747,1,-0.542966,132.004,5.42362,145.198,-0.300206
block_1,2497,9,6748,1,-0.546437,131.628,5.45919,144.996,-0.300207
block_1,2498,9,6749,1,-0.682026,114.415,5.80432,125.851,-0.365357
block_1,2499,9,6750,1,-0.686611,114.089,5.84237,125.676,-0.365359
block_1,2500,9,6751,1,-0.54995,131.25,5.49475,144.792,-0.300208
block_1,2501,9,6752,1,-0.553507,130.869,5.53032,144.587,-0.30021
block_1,2502,9,6753,1,-0.691252,113.761,5.88043,125.499,-0.36536
block_1,2503,9,6754,1,-0.695951,113.431,5.91849,125.321,-0.365361
block_1,2504,9,6755,1,-0.847578,96.83,6.13067,106.509,-0.434607
block_1,2505,9,6756,1,-0.853605,96.5544,6.17087,106.36,-0.434609
block_1,2506,9,6757,1,-1.05204,79.2492,6.40269,87.1701,-0.507325
block_1,2507,9,6758,1,-1.06002,79.0236,6.44467,87.0486,-0.507327
block_1,2508,9,6759,1,-0.859705,96.2769,6.21106,106.211,-0.43461
block_1,2509,9,6760,1,-0.86588,95.9977,6.25126,106.06,-0.434612
block_1,2510,9,6761,1,-1.06809,78.7965,6.48665,86.9263,-0.507328
block_1,2511,9,6762,1,-1.07626,78.568,6.52862,86.8031,-0.50733
block_1,2512,9,6763,1,-0.557108,130.486,5.56589,144.381,-0.300211
block_1,2513,9,6764,1,-0.560754,130.101,5.60145,144.173,-0.300212
block_1,2514,9,6765,1,-0.700707,113.099,5.95655,125.142,-0.365363
block_1,2515,9,6766,1,-0.705523,112.765,5.99461,124.962,-0.365364
block_1,2516,9,6767,1,-0.564446,129.713,5.63702,143.964,-0.300213
block_1,2517,9,6768,1,-0.568183,129.322,5.67258,143.753,-0.300214
block_1,2518,9,6769,1,-0.710397,112.429,6.03267,124.781,-0.365366
block_1,2519,9,6770,1,-0.715332,112.09,6.07073,124.599,-0.365367
block_1,2520,9,6771,1,-0.872131,95.7166,6.29145,105.909,-0.434613
block_1,2521,9,6772,1,-0.878458,95.4338,6.33165,105.756,-0.434615
block_1,2522,9,6773,1,-1.08454,78.338,6.5706,86.6792,-0.507332
block_1,2523,9,6774,1,-1.09291,78.1065,6.61258,86.5545,-0.507334
block_1,2524,9,6775,1,-0.884863,95.1491,6.37185,105.603,-0.434616
block_1,2525,9,6776,1,-0.891347,94.8627,6.41204,105.449,-0.434618
block_1,2526,9,6777,1,-1.10138,77.8736,6.65455,86.429,-0.507336
block_1,2527,9,6778,1,-1.10996,77.6391,6.69653,86.3027,-0.507338
block_1,2528,9,6779,1,-1.32209,61.6715,6.62038,67.8348,-0.582881
block_1,2529,9,6780,1,-1.3329,61.496,6.66378,67.7402,-0.582883
block_1,2530,9,6781,1,-1.72417,44.0963,6.78373,48.5019,-0.660646
block_1,2531,9,6782,1,-1.73955,43.9709,6.8282,48.4343,-0.660648
block_1,2532,9,6783,1,-1.34384,61.3193,6.70718,67.645,-0.582885
block_1,2533,9,6784,1,-1.35491,61.1415,6.75058,67.5492,-0.582887
block_1,2534,9,6785,1,-1.75511,43.8446,6.87267,48.3663,-0.660651
block_1,2535,9,6786,1,-1.77085,43.7175,6.91714,48.2978,-0.660653
block_1,2536,9,6787,1,-2.46969,26.5229,6.89275,29.1708,-0.739989
block_1,2537,9,6788,1,-2.49366,26.4475,6.93793,29.1302,-0.739992
block_1,2538,9,6789,1,-4.5651,8.95057,6.94742,9.84076,-0.820281
block_1,2539,9,6790,1,-4.60632,8.92523,6.99297,9.8271,-0.820284
block_1,2540,9,6791,1,-2.51788,26.3716,6.98311,29.0893,-0.739994
block_1,2541,9,6792,1,-2.54234,26.2952,7.0283,29.0481,-0.739997
block_1,2542,9,6793,1,-4.64774,8.89972,7.03851,9.81335,-0.820287
block_1,2543,9,6794,1,-4.68936,8.87404,7.08405,9.79952,-0.82029
block_1,2544,9,6795,1,-1.36611,60.9625,6.79399,67.4528,-0.582889
block_1,2545,9,6796,1,-1.37745,60.7824,6.83739,67.3558,-0.582892
block_1,2546,9,6797,1,-1.78676,43.5895,6.96161,48.2289,-0.660655
block_1,2547,9,6798,1,-1.80285,43.4608,7.00609,48.1595,-0.660658
block_1,2548,9,6799,1,-1.38892,60.6012,6.88079,67.2581,-0.582894
block_1,2549,9,6800,1,-1.40053,60.4188,6.92419,67.1599,-0.582896
block_1,2550,9,6801,1,-1.81913,43.3312,7.05056,48.0897,-0.66066
block_1,2551,9,6802,1,-1.8356,43.2009,7.09503,48.0195,-0.660662
block_1,2552,9,6803,1,-2.56705,26.2183,7.07348,29.0067,-0.74
block_1,2553,9,6804,1,-2.592,26.141,7.11867,28.965,-0.740002
block_1,2554,9,6805,1,-4.73117,8.8482,7.12959,9.78559,-0.820293
block_1,2555,9,6806,1,-4.77318,8.8222,7.17514,9.77158,-0.820296
block_1,2556,9,6807,1,-2.6172,26.0631,7.16385,28.9231,-0.740005
block_1,2557,9,6808,1,-2.64265,25.9847,7.20904,28.8808,-0.740008
block_1,2558,9,6809,1,-4.81539,8.79603,7.22068,9.75748,-0.820298
block_1,2559,9,6810,1,-4.85779,8.76969,7.26622,9.74329,-0.820301
block_1,2560,9,6811,1,-0.0127762,266.618,0.444513,296.804,-0.00212917
block_1,2561,9,6812,1,-0.0127458,265.801,0.447326,296.364,-0.00212918
block_1,2562,9,6813,1,-0.0291909,249.376,1.3026,277.615,-0.0118163
block_1,2563,9,6814,1,-0.0292525,248.612,1.31076,277.204,-0.0118163
block_1,2564,9,6815,1,-0.0127152,264.979,0.450139,295.921,-0.00212919
block_1,2565,9,6816,1,-0.0126846,264.152,0.452951,295.476,-0.0021292
block_1,2566,9,6817,1,-0.0293151,247.843,1.31891,276.789,-0.0118163
block_1,2567,9,6818,1,-0.0293788,247.069,1.32706,276.373,-0.0118164
block_1,2568,9,6819,1,-0.0610322,232.144,2.10352,258.437,-0.0306414
block_1,2569,9,6820,1,-0.0612819,231.433,2.11665,258.053,-0.0306416
block_1,2570,9,6821,1,-0.107897,214.922,2.84724,239.268,-0.0579748
block_1,2571,9,6822,1,-0.108434,214.263,2.86501,238.913,-0.057975
block_1,2572,9,6823,1,-0.061535,230.717,2.12979,257.668,-0.0306417
block_1,2573,9,6824,1,-0.0617917,229.997,2.14293,257.28,-0.0306418
block_1,2574,9,6825,1,-0.108978,213.6,2.88277,238.556,-0.0579753
block_1,2575,9,6826,1,-0.109529,212.933,2.90054,238.196,-0.0579755
block_1,2576,9,6827,1,-0.0126539,263.32,0.455764,295.028,-0.00212921
block_1,2577,9,6828,1,-0.0126231,262.483,0.458576,294.577,-0.00212922
block_1,2578,9,6829,1,-0.0294436,246.291,1.33522,275.953,-0.0118164
block_1,2579,9,6830,1,-0.0295096,245.508,1.34337,275.531,-0.0118165
block_1,2580,9,6831,1,-0.0125922,261.641,0.461388,294.123,-0.00212923
block_1,2581,9,6832,1,-0.0125611,260.794,0.464199,293.667,-0.00212923
block_1,2582,9,6833,1,-0.0295766,244.72,1.35152,275.107,-0.0118165
block_1,2583,9,6834,1,-0.0296448,243.927,1.35967,274.68,-0.0118166
block_1,2584,9,6835,1,-0.0620518,229.272,2.15606,256.889,-0.0306419
block_1,2585,9,6836,1,-0.0623155,228.543,2.1692,256.497,-0.0306421
block_1,2586,9,6837,1,-0.110087,212.262,2.9183,237.835,-0.0579757
block_1,2587,9,6838,1,-0.110653,211.587,2.93607,237.471,-0.057976
block_1,2588,9,6839,1,-0.0625829,227.809,2.18233,256.101,-0.0306422
block_1,2589,9,6840,1,-0.0628539,227.071,2.19547,255.704,-0.0306423
block_1,2590,9,6841,1,-0.111226,210.908,2.95383,237.105,-0.0579762
block_1,2591,9,6842,1,-0.111807,210.225,2.9716,236.737,-0.0579764
block_1,2592,9,6843,1,-0.169555,197.708,3.53379,220.108,-0.0931864
block_1,2593,9,6844,1,-0.170484,197.102,3.55583,219.781,-0.0931867
block_1,2594,9,6845,1,-0.246031,180.503,4.16315,200.956,-0.135646
block_1,2595,9,6846,1,-0.247466,179.95,4.18911,200.658,-0.135647
block_1,2596,9,6847,1,-0.171425,196.493,3.57786,219.453,-0.0931871
block_1,2597,9,6848,1,-0.172377,195.879,3.5999,219.122,-0.0931875
block_1,2598,9,6849,1,-0.248919,179.393,4.21506,200.358,-0.135647
block_1,2599,9,6850,1,-0.25039,178.833,4.24101,200.056,-0.135648
block_1,2600,9,6851,1,-0.337739,163.305,4.73534,181.811,-0.184724
block_1,2601,9,6852,1,-0.339808,162.805,4.76485,181.541,-0.184725
block_1,2602,9,6853,1,-0.445705,146.114,5.25033,162.673,-0.239791
block_1,2603,9,6854,1,-0.44856,145.666,5.28305,162.432,-0.239791
block_1,2604,9,6855,1,-0.341903,162.301,4.79436,181.27,-0.184726
block_1,2605,9,6856,1,-0.344025,161.794,4.82388,180.997,-0.184726
block_1,2606,9,6857,1,-0.451451,145.215,5.31577,162.189,-0.239792
block_1,2607,9,6858,1,-0.454379,144.762,5.34849,161.945,-0.239793
block_1,2608,9,6859,1,-0.173343,195.262,3.62194,218.789,-0.0931878
block_1,2609,9,6860,1,-0.17432,194.64,3.64398,218.455,-0.0931882
block_1,2610,9,6861,1,-0.25188,178.269,4.26697,199.752,-0.135648
block_1,2611,9,6862,1,-0.25339,177.702,4.29292,199.446,-0.135649
block_1,2612,9,6863,1,-0.175311,194.015,3.66601,218.118,-0.0931886
block_1,2613,9,6864,1,-0.176314,193.387,3.68805,217.779,-0.093189
block_1,2614,9,6865,1,-0.254918,177.131,4.31888,199.139,-0.135649
block_1,2615,9,6866,1,-0.256466,176.557,4.34483,198.83,-0.13565
block_1,2616,9,6867,1,-0.346174,161.284,4.85339,180.722,-0.184727
block_1,2617,9,6868,1,-0.348349,160.771,4.88291,180.446,-0.184728
block_1,2618,9,6869,1,-0.457343,144.305,5.38121,161.699,-0.239794
block_1,2619,9,6870,1,-0.460345,143.846,5.41393,161.452,-0.239795
block_1,2620,9,6871,1,-0.350552,160.254,4.91242,180.168,-0.184729
block_1,2621,9,6872,1,-0.352784,159.735,4.94194,179.888,-0.184729
block_1,2622,9,6873,1,-0.463384,143.384,5.44665,161.203,-0.239796
block_1,2623,9,6874,1,-0.466462,142.919,5.47937,160.952,-0.239797
block_1,2624,9,6875,1,-0.01253,259.942,0.467011,293.207,-0.00212924
block_1,2625,9,6876,1,-0.0124988,259.084,0.469822,292.746,-0.00212925
block_1,2626,9,6877,1,-0.0297142,243.13,1.36782,274.251,-0.0118166
block_1,2627,9,6878,1,-0.0297848,242.328,1.37598,273.818,-0.0118167
block_1,2628,9,6879,1,-0.0124675,258.222,0.472633,292.281,-0.00212926
block_1,2629,9,6880,1,-0.0124362,257.354,0.475444,291.814,-0.00212927
block_1,2630,9,6881,1,-0.0298566,241.521,1.38413,273.384,-0.0118167
block_1,2631,9,6882,1,-0.0299297,240.71,1.39228,272.947,-0.0118168
block_1,2632,9,6883,1,-0.0631287,226.329,2.20861,255.304,-0.0306424
block_1,2633,9,6884,1,-0.0634073,225.582,2.22174,254.902,-0.0306426
block_1,2634,9,6885,1,-0.112395,209.537,2.98936,236.367,-0.0579767
block_1,2635,9,6886,1,-0.112991,208.846,3.00713,235.994,-0.0579769
block_1,2636,9,6887,1,-0.0636897,224.831,2.23488,254.497,-0.0306427
block_1,2637,9,6888,1,-0.0639761,224.075,2.24802,254.09,-0.0306428
block_1,2638,9,6889,1,-0.113595,208.15,3.02489,235.62,-0.0579772
block_1,2639,9,6890,1,-0.114207,207.45,3.04266,235.243,-0.0579774
block_1,2640,9,6891,1,-0.0124047,256.482,0.478255,291.344,-0.00212928
block_1,2641,9,6892,1,-0.0123732,255.604,0.481065,290.871,-0.00212929
block_1,2642,9,6893,1,-0.030004,239.893,1.40043,272.507,-0.0118168
block_1,2643,9,6894,1,-0.0300795,239.072,1.40858,272.065,-0.0118169
block_1,2644,9,6895,1,-0.0123415,254.722,0.483875,290.395,-0.0021293
block_1,2645,9,6896,1,-0.0123098,253.834,0.486685,289.917,-0.00212931
block_1,2646,9,6897,1,-0.0301564,238.247,1.41673,271.62,-0.0118169
block_1,2647,9,6898,1,-0.0302347,237.416,1.42488,271.172,-0.011817
block_1,2648,9,6899,1,-0.0642665,223.315,2.26115,253.681,-0.030643
block_1,2649,9,6900,1,-0.0645609,222.551,2.27429,253.269,-0.0306431
block_1,2650,9,6901,1,-0.114828,206.747,3.06042,234.864,-0.0579776
block_1,2651,9,6902,1,-0.115456,206.039,3.07819,234.482,-0.0579779
block_1,2652,9,6903,1,-0.0648594,221.782,2.28742,252.855,-0.0306432
block_1,2653,9,6904,1,-0.0651622,221.009,2.30056,252.438,-0.0306433
block_1,2654,9,6905,1,-0.116093,205.327,3.09595,234.099,-0.0579781
block_1,2655,9,6906,1,-0.116738,204.611,3.11372,233.713,-0.0579784
block_1,2656,9,6907,1,-0.17733,192.754,3.71009,217.439,-0.0931893
block_1,2657,9,6908,1,-0.178359,192.118,3.73212,217.096,-0.0931897
block_1,2658,9,6909,1,-0.258034,175.98,4.37078,198.519,-0.13565
block_1,2659,9,6910,1,-0.259622,175.399,4.39674,198.206,-0.135651
block_1,2660,9,6911,1,-0.179402,191.478,3.75416,216.751,-0.0931901
block_1,2661,9,6912,1,-0.180458,190.835,3.7762,216.405,-0.0931905
block_1,2662,9,6913,1,-0.261231,174.814,4.42269,197.891,-0.135652
block_1,2663,9,6914,1,-0.26286,174.227,4.44865,197.574,-0.135652
block_1,2664,9,6915,1,-0.355044,159.212,4.97145,179.606,-0.18473
block_1,2665,9,6916,1,-0.357332,158.687,5.00097,179.323,-0.184731
block_1,2666,9,6917,1,-0.469579,142.452,5.51209,160.7,-0.239798
block_1,2667,9,6918,1,-0.472736,141.982,5.54481,160.447,-0.239799
block_1,2668,9,6919,1,-0.35965,158.158,5.03048,179.038,-0.184732
block_1,2669,9,6920,1,-0.361998,157.626,5.06,178.752,-0.184732
block_1,2670,9,6921,1,-0.475932,141.508,5.57753,160.192,-0.2398
block_1,2671,9,6922,1,-0.47917,141.033,5.61025,159.936,-0.239801
block_1,2672,9,6923,1,-0.181528,190.187,3.79824,216.056,-0.0931909
block_1,2673,9,6924,1,-0.182612,189.536,3.82028,215.705,-0.0931913
block_1,2674,9,6925,1,-0.26451,173.635,4.4746,197.256,-0.135653
block_1,2675,9,6926,1,-0.266182,173.041,4.50056,196.936,-0.135653
block_1,2676,9,6927,1,-0.18371,188.881,3.84231,215.352,-0.0931917
block_1,2677,9,6928,1,-0.184823,188.222,3.86435,214.997,-0.0931921
block_1,2678,9,6929,1,-0.267875,172.443,4.52651,196.614,-0.135654
block_1,2679,9,6930,1,-0.269591,171.841,4.55247,196.289,-0.135654
block_1,2680,9,6931,1,-0.364375,157.091,5.08951,178.464,-0.184733
block_1,2681,9,6932,1,-0.366784,156.553,5.11903,178.174,-0.184734
block_1,2682,9,6933,1,-0.482449,140.554,5.64297,159.678,-0.239802
block_1,2683,9,6934,1,-0.485769,140.073,5.67569,159.419,-0.239803
block_1,2684,9,6935,1,-0.369223,156.012,5.14854,177.882,-0.184735
block_1,2685,9,6936,1,-0.371694,155.468,5.17806,177.589,-0.184735
block_1,2686,9,6937,1,-0.489133,139.588,5.70841,159.158,-0.239804
block_1,2687,9,6938,1,-0.492539,139.101,5.74113,158.896,-0.239805
block_1,2688,9,6939,1,-0.571966,128.929,5.70815,143.542,-0.300215
block_1,2689,9,6940,1,-0.575797,128.534,5.74372,143.329,-0.300216
block_1,2690,9,6941,1,-0.720328,111.75,6.10879,124.415,-0.365368
block_1,2691,9,6942,1,-0.725386,111.407,6.14685,124.231,-0.36537
block_1,2692,9,6943,1,-0.579676,128.136,5.77929,143.114,-0.300218
block_1,2693,9,6944,1,-0.583603,127.736,5.81485,142.899,-0.300219
block_1,2694,9,6945,1,-0.730507,111.062,6.18491,124.045,-0.365371
block_1,2695,9,6946,1,-0.735692,110.715,6.22297,123.858,-0.365372
block_1,2696,9,6947,1,-0.897911,94.5745,6.45224,105.294,-0.43462
block_1,2697,9,6948,1,-0.904555,94.2844,6.49244,105.137,-0.434621
block_1,2698,9,6949,1,-1.11864,77.4032,6.73851,86.1756,-0.50734
block_1,2699,9,6950,1,-1.12743,77.1659,6.78049,86.0478,-0.507342
block_1,2700,9,6951,1,-0.911281,93.9926,6.53263,104.98,-0.434623
block_1,2701,9,6952,1,-0.91809,93.6989,6.57283,104.822,-0.434625
block_1,2702,9,6953,1,-1.13632,76.927,6.82247,85.9191,-0.507343
block_1,2703,9,6954,1,-1.14533,76.6867,6.86445,85.7896,-0.507345
block_1,2704,9,6955,1,-0.587579,127.333,5.85042,142.682,-0.30022
block_1,2705,9,6956,1,-0.591606,126.928,5.88599,142.463,-0.300221
block_1,2706,9,6957,1,-0.740941,110.366,6.26103,123.67,-0.365374
block_1,2707,9,6958,1,-0.746255,110.015,6.29909,123.481,-0.365375
block_1,2708,9,6959,1,-0.595682,126.52,5.92156,142.244,-0.300222
block_1,2709,9,6960,1,-0.599811,126.11,5.95713,142.023,-0.300223
block_1,2710,9,6961,1,-0.751636,109.661,6.33715,123.29,-0.365377
block_1,2711,9,6962,1,-0.757085,109.306,6.37521,123.099,-0.365378
block_1,2712,9,6963,1,-0.924984,93.4035,6.61303,104.663,-0.434626
block_1,2713,9,6964,1,-0.931962,93.1062,6.65323,104.503,-0.434628
block_1,2714,9,6965,1,-1.15444,76.4449,6.90643,85.6594,-0.507347
block_1,2715,9,6966,1,-1.16366,76.2017,6.9484,85.5283,-0.507349
block_1,2716,9,6967,1,-0.939027,92.8072,6.69343,104.341,-0.43463
block_1,2717,9,6968,1,-0.94618,92.5063,6.73363,104.179,-0.434631
block_1,2718,9,6969,1,-1.173,75.9569,6.99038,85.3965,-0.507351
block_1,2719,9,6970,1,-1.18245,75.7107,7.03237,85.2639,-0.507353
block_1,2720,9,6971,1,-1.41227,60.2352,6.9676,67.061,-0.582898
block_1,2721,9,6972,1,-1.42416,60.0505,7.011,66.9615,-0.5829
block_1,2722,9,6973,1,-1.85225,43.0697,7.1395,47.9488,-0.660665
block_1,2723,9,6974,1,-1.86909,42.9376,7.18398,47.8777,-0.660667
block_1,2724,9,6975,1,-1.43618,59.8647,7.05441,66.8614,-0.582902
block_1,2725,9,6976,1,-1.44835,59.6777,7.09781,66.7606,-0.582905
block_1,2726,9,6977,1,-1.88612,42.8048,7.22845,47.8061,-0.66067
block_1,2727,9,6978,1,-1.90334,42.6712,7.27292,47.7341,-0.660672
block_1,2728,9,6979,1,-2.66836,25.9059,7.25423,28.8384,-0.74001
block_1,2729,9,6980,1,-2.69432,25.8266,7.29941,28.7956,-0.740013
block_1,2730,9,6981,1,-4.90039,8.74319,7.31177,9.72901,-0.820304
block_1,2731,9,6982,1,-4.94319,8.71652,7.35731,9.71464,-0.820307
block_1,2732,9,6983,1,-2.72053,25.7467,7.3446,28.7526,-0.740016
block_1,2733,9,6984,1,-2.74701,25.6664,7.38979,28.7093,-0.740018
block_1,2734,9,6985,1,-4.98617,8.68969,7.40286,9.70018,-0.82031
block_1,2735,9,6986,1,-5.02935,8.6627,7.4484,9.68563,-0.820313
block_1,2736,9,6987,1,-1.46067,59.4896,7.14121,66.6593,-0.582907
block_1,2737,9,6988,1,-1.47313,59.3003,7.18462,66.5573,-0.582909
block_1,2738,9,6989,1,-1.92076,42.5367,7.3174,47.6616,-0.660675
block_1,2739,9,6990,1,-1.93838,42.4014,7.36187,47.5888,-0.660677
block_1,2740,9,6991,1,-1.48574,59.1099,7.22802,66.4547,-0.582911
block_1,2741,9,6992,1,-1.49851,58.9183,7.27143,66.3515,-0.582913
block_1,2742,9,6993,1,-1.9562,42.2653,7.40635,47.5154,-0.66068
block_1,2743,9,6994,1,-1.97423,42.1283,7.45082,47.4417,-0.660682
block_1,2744,9,6995,1,-2.77374,25.5856,7.43498,28.6658,-0.740021
block_1,2745,9,6996,1,-2.80074,25.5043,7.48016,28.622,-0.740024
block_1,2746,9,6997,1,-5.07272,8.63553,7.49395,9.671,-0.820316
block_1,2747,9,6998,1,-5.11629,8.60821,7.53949,9.65627,-0.820319
block_1,2748,9,6999,1,-2.828,25.4225,7.52535,28.5779,-0.740027
block_1,2749,9,7000,1,-2.85553,25.3402,7.57054,28.5336,-0.74003
block_1,2750,9,7001,1,-5.16004,8.58072,7.58504,9.64146,-0.820322
block_1,2751,9,7002,1,-5.20399,8.55306,7.63059,9.62656,-0.820326
block_1,2752,9,7003,1,-0.603991,125.697,5.9927,141.801,-0.300225
block_1,2753,9,7004,1,-0.608224,125.282,6.02827,141.577,-0.300226
block_1,2754,9,7005,1,-0.762601,108.948,6.41328,122.906,-0.36538
block_1,2755,9,7006,1,-0.768187,108.589,6.45134,122.712,-0.365381
block_1,2756,9,7007,1,-0.61251,124.865,6.06384,141.352,-0.300227
block_1,2757,9,7008,1,-0.616851,124.445,6.09941,141.126,-0.300228
block_1,2758,9,7009,1,-0.773843,108.227,6.4894,122.517,-0.365383
block_1,2759,9,7010,1,-0.779571,107.863,6.52746,122.321,-0.365384
block_1,2760,9,7011,1,-0.953422,92.2037,6.77383,104.016,-0.434633
block_1,2761,9,7012,1,-0.960754,91.8993,6.81403,103.852,-0.434635
block_1,2762,9,7013,1,-1.19202,75.463,7.07435,85.1304,-0.507355
block_1,2763,9,7014,1,-1.2017,75.2139,7.11633,84.9962,-0.507357
block_1,2764,9,7015,1,-0.968177,91.593,6.85423,103.687,-0.434637
block_1,2765,9,7016,1,-0.975694,91.285,6.89443,103.521,-0.434638
block_1,2766,9,7017,1,-1.21151,74.9633,7.15831,84.8612,-0.507359
block_1,2767,9,7018,1,-1.22143,74.7112,7.20029,84.7254,-0.507361
block_1,2768,9,7019,1,-0.621248,124.023,6.13498,140.898,-0.300229
block_1,2769,9,7020,1,-0.6257,123.598,6.17055,140.67,-0.300231
block_1,2770,9,7021,1,-0.785371,107.497,6.56553,122.124,-0.365386
block_1,2771,9,7022,1,-0.791244,107.128,6.60359,121.926,-0.365387
block_1,2772,9,7023,1,-0.630209,123.17,6.20612,140.439,-0.300232
block_1,2773,9,7024,1,-0.634775,122.741,6.24169,140.208,-0.300233
block_1,2774,9,7025,1,-0.797192,106.758,6.64165,121.726,-0.365389
block_1,2775,9,7026,1,-0.803215,106.385,6.67972,121.526,-0.36539
block_1,2776,9,7027,1,-0.983304,90.9751,6.93463,103.355,-0.43464
block_1,2777,9,7028,1,-0.99101,90.6635,6.97483,103.187,-0.434642
block_1,2778,9,7029,1,-1.23148,74.4576,7.24227,84.5888,-0.507363
block_1,2779,9,7030,1,-1.24166,74.2026,7.28425,84.4514,-0.507365
block_1,2780,9,7031,1,-0.998813,90.35,7.01503,103.018,-0.434644
block_1,2781,9,7032,1,-1.00671,90.0348,7.05523,102.848,-0.434645
block_1,2782,9,7033,1,-1.25195,73.946,7.32624,84.3132,-0.507367
block_1,2783,9,7034,1,-1.26238,73.688,7.36822,84.1743,-0.507369
block_1,2784,9,7035,1,-1.51142,58.7256,7.31484,66.2477,-0.582916
block_1,2785,9,7036,1,-1.5245,58.5317,7.35824,66.1433,-0.582918
block_1,2786,9,7037,1,-1.99246,41.9906,7.4953,47.3675,-0.660685
block_1,2787,9,7038,1,-2.01089,41.852,7.53977,47.2928,-0.660687
block_1,2788,9,7039,1,-1.53773,58.3367,7.40165,66.0382,-0.58292
block_1,2789,9,7040,1,-1.55111,58.1406,7.44506,65.9326,-0.582923
block_1,2790,9,7041,1,-2.02954,41.7126,7.58425,47.2177,-0.66069
block_1,2791,9,7042,1,-2.0484,41.5724,7.62873,47.1422,-0.660693
block_1,2792,9,7043,1,-2.88332,25.2574,7.61573,28.489,-0.740032
block_1,2793,9,7044,1,-2.91139,25.1741,7.66092,28.4441,-0.740035
block_1,2794,9,7045,1,-5.24812,8.52524,7.67613,9.61157,-0.820329
block_1,2795,9,7046,1,-5.29244,8.49725,7.72168,9.59649,-0.820332
block_1,2796,9,7047,1,-2.93973,25.0903,7.70611,28.399,-0.740038
block_1,2797,9,7048,1,-2.96835,25.0061,7.7513,28.3536,-0.740041
block_1,2798,9,7049,1,-5.33695,8.4691,7.76723,9.58132,-0.820335
block_1,2799,9,7050,1,-5.38165,8.44078,7.81278,9.56606,-0.820338
block_1,2800,9,7051,1,-1.56466,57.9433,7.48846,65.8263,-0.582925
block_1,2801,9,7052,1,-1.57837,57.7448,7.53187,65.7194,-0.582927
block_1,2802,9,7053,1,-2.06747,41.4314,7.6732,47.0662,-0.660695
block_1,2803,9,7054,1,-2.08676,41.2896,7.71768,46.9898,-0.660698
block_1,2804,9,7055,1,-1.59225,57.5452,7.57528,65.6118,-0.58293
block_1,2805,9,7056,1,-1.6063,57.3445,7.61869,65.5037,-0.582932
block_1,2806,9,7057,1,-2.10628,41.1469,7.76216,46.9129,-0.6607
block_1,2807,9,7058,1,-2.12601,41.0034,7.80664,46.8356,-0.660703
block_1,2808,9,7059,1,-2.99724,24.9213,7.79649,28.3079,-0.740044
block_1,2809,9,7060,1,-3.02641,24.8361,7.84168,28.262,-0.740047
block_1,2810,9,7061,1,-5.42654,8.4123,7.85832,9.55071,-0.820341
block_1,2811,9,7062,1,-5.47161,8.38365,7.90387,9.53528,-0.820344
block_1,2812,9,7063,1,-3.05587,24.7503,7.88687,28.2158,-0.74005
block_1,2813,9,7064,1,-3.08561,24.6641,7.93207,28.1694,-0.740053
block_1,2814,9,7065,1,-5.51687,8.35484,7.94942,9.51975,-0.820348
block_1,2815,9,7066,1,-5.56231,8.32586,7.99497,9.50414,-0.820351
block_1,2816,9,7067,1,-0.0122781,252.941,0.489495,289.436,-0.00212932
block_1,2817,9,7068,1,-0.0122462,252.043,0.492305,288.953,-0.00212933
block_1,2818,9,7069,1,-0.0303142,236.581,1.43303,270.723,-0.011817
block_1,2819,9,7070,1,-0.0303952,235.741,1.44118,270.27,-0.0118171
block_1,2820,9,7071,1,-0.0122143,251.14,0.495114,288.466,-0.00212934
block_1,2821,9,7072,1,-0.0121824,250.232,0.497924,287.977,-0.00212934
block_1,2822,9,7073,1,-0.0304776,234.896,1.44933,269.815,-0.0118171
block_1,2823,9,7074,1,-0.0305614,234.047,1.45749,269.357,-0.0118172
block_1,2824,9,7075,1,-0.0654692,220.231,2.3137,252.019,-0.0306435
block_1,2825,9,7076,1,-0.0657805,219.449,2.32683,251.598,-0.0306436
block_1,2826,9,7077,1,-0.117392,203.891,3.13148,233.325,-0.0579786
block_1,2827,9,7078,1,-0.118055,203.167,3.14925,232.935,-0.0579789
block_1,2828,9,7079,1,-0.0660962,218.662,2.33997,251.174,-0.0306437
block_1,2829,9,7080,1,-0.0664164,217.872,2.3531,250.748,-0.0306439
block_1,2830,9,7081,1,-0.118727,202.438,3.16701,232.543,-0.0579791
block_1,2831,9,7082,1,-0.119408,201.706,3.18478,232.148,-0.0579794
block_1,2832,9,7083,1,-0.0121504,249.319,0.500733,287.485,-0.00212935
block_1,2833,9,7084,1,-0.0121183,248.401,0.503542,286.991,-0.00212936
block_1,2834,9,7085,1,-0.0306467,233.192,1.46564,268.897,-0.0118172
block_1,2835,9,7086,1,-0.0307334,232.333,1.47379,268.435,-0.0118173
block_1,2836,9,7087,1,-0.0120861,247.477,0.506351,286.493,-0.00212937
block_1,2837,9,7088,1,-0.012054,246.549,0.509159,285.993,-0.00212938
block_1,2838,9,7089,1,-0.0308217,231.47,1.48194,267.969,-0.0118174
block_1,2839,9,7090,1,-0.0309116,230.601,1.49009,267.502,-0.0118174
block_1,2840,9,7091,1,-0.0667411,217.076,2.36624,250.32,-0.030644
block_1,2841,9,7092,1,-0.0670705,216.276,2.37937,249.889,-0.0306442
block_1,2842,9,7093,1,-0.120098,200.97,3.20254,231.752,-0.0579796
block_1,2843,9,7094,1,-0.120798,200.229,3.22031,231.353,-0.0579799
block_1,2844,9,7095,1,-0.0674045,215.472,2.39251,249.456,-0.0306443
block_1,2845,9,7096,1,-0.0677434,214.664,2.40565,249.02,-0.0306444
block_1,2846,9,7097,1,-0.121507,199.484,3.23807,230.952,-0.0579802
block_1,2847,9,7098,1,-0.122226,198.736,3.25584,230.548,-0.0579804
block_1,2848,9,7099,1,-0.18595,187.56,3.88639,214.64,-0.0931925
block_1,2849,9,7100,1,-0.187093,186.893,3.90843,214.282,-0.0931929
block_1,2850,9,7101,1,-0.271329,171.236,4.57842,195.964,-0.135655
block_1,2851,9,7102,1,-0.273089,170.628,4.60438,195.636,-0.135656
block_1,2852,9,7103,1,-0.18825,186.223,3.93047,213.921,-0.0931933
block_1,2853,9,7104,1,-0.189423,185.549,3.9525,213.558,-0.0931937
block_1,2854,9,7105,1,-0.274873,170.016,4.63033,195.306,-0.135656
block_1,2855,9,7106,1,-0.27668,169.401,4.65629,194.975,-0.135657
block_1,2856,9,7107,1,-0.374197,154.921,5.20758,177.294,-0.184736
block_1,2857,9,7108,1,-0.376733,154.37,5.23709,176.998,-0.184737
block_1,2858,9,7109,1,-0.49599,138.612,5.77386,158.632,-0.239806
block_1,2859,9,7110,1,-0.499485,138.119,5.80658,158.366,-0.239807
block_1,2860,9,7111,1,-0.379301,153.816,5.26661,176.7,-0.184738
block_1,2861,9,7112,1,-0.381903,153.26,5.29613,176.4,-0.184739
block_1,2862,9,7113,1,-0.503026,137.624,5.8393,158.1,-0.239808
block_1,2863,9,7114,1,-0.506612,137.125,5.87202,157.831,-0.239809
block_1,2864,9,7115,1,-0.190611,184.872,3.97454,213.193,-0.0931941
block_1,2865,9,7116,1,-0.191816,184.19,3.99658,212.826,-0.0931945
block_1,2866,9,7117,1,-0.278511,168.782,4.68224,194.642,-0.135657
block_1,2867,9,7118,1,-0.280366,168.16,4.7082,194.307,-0.135658
block_1,2868,9,7119,1,-0.193036,183.505,4.01862,212.457,-0.0931949
block_1,2869,9,7120,1,-0.194273,182.817,4.04066,212.086,-0.0931953
block_1,2870,9,7121,1,-0.282246,167.535,4.73416,193.97,-0.135659
block_1,2871,9,7122,1,-0.284151,166.906,4.76011,193.631,-0.135659
block_1,2872,9,7123,1,-0.38454,152.7,5.32564,176.098,-0.184739
block_1,2873,9,7124,1,-0.387211,152.137,5.35516,175.795,-0.18474
block_1,2874,9,7125,1,-0.510246,136.625,5.90475,157.561,-0.23981
block_1,2875,9,7126,1,-0.513927,136.121,5.93747,157.29,-0.239811
block_1,2876,9,7127,1,-0.389917,151.571,5.38468,175.49,-0.184741
block_1,2877,9,7128,1,-0.392659,151.002,5.4142,175.184,-0.184742
block_1,2878,9,7129,1,-0.517655,135.614,5.97019,157.017,-0.239812
block_1,2879,9,7130,1,-0.521433,135.105,6.00291,156.743,-0.239813
block_1,2880,9,7131,1,-0.0120217,245.616,0.511968,285.49,-0.00212939
block_1,2881,9,7132,1,-0.0119895,244.677,0.514776,284.985,-0.0021294
block_1,2882,9,7133,1,-0.031003,229.728,1.49824,267.031,-0.0118175
block_1,2883,9,7134,1,-0.031096,228.85,1.50639,266.558,-0.0118175
block_1,2884,9,7135,1,-0.0119572,243.734,0.517585,284.477,-0.00212941
block_1,2885,9,7136,1,-0.0119248,242.785,0.520393,283.966,-0.00212942
block_1,2886,9,7137,1,-0.0311906,227.967,1.51454,266.083,-0.0118176
block_1,2887,9,7138,1,-0.031287,227.08,1.52269,265.605,-0.0118176
block_1,2888,9,7139,1,-0.0680871,213.851,2.41878,248.582,-0.0306446
block_1,2889,9,7140,1,-0.0684357,213.033,2.43192,248.142,-0.0306447
block_1,2890,9,7141,1,-0.122954,197.983,3.2736,230.143,-0.0579807
block_1,2891,9,7142,1,-0.123693,197.226,3.29137,229.735,-0.0579809
block_1,2892,9,7143,1,-0.0687894,212.211,2.44505,247.699,-0.0306448
block_1,2893,9,7144,1,-0.0691482,211.385,2.45819,247.254,-0.030645
block_1,2894,9,7145,1,-0.124442,196.465,3.30913,229.325,-0.0579812
block_1,2895,9,7146,1,-0.125201,195.7,3.3269,228.913,-0.0579815
block_1,2896,9,7147,1,-0.0118924,241.831,0.523201,283.452,-0.00212943
block_1,2897,9,7148,1,-0.01186,240.873,0.526008,282.936,-0.00212944
block_1,2898,9,7149,1,-0.031385,226.188,1.53084,265.124,-0.0118177
block_1,2899,9,7150,1,-0.0314848,225.291,1.53899,264.641,-0.0118177
block_1,2900,9,7151,1,-0.0118276,239.909,0.528816,282.416,-0.00212945
block_1,2901,9,7152,1,-0.0117952,238.94,0.531623,281.895,-0.00212946
block_1,2902,9,7153,1,-0.0315863,224.389,1.54714,264.155,-0.0118178
block_1,2903,9,7154,1,-0.0316896,223.483,1.55528,263.667,-0.0118178
block_1,2904,9,7155,1,-0.0695123,210.554,2.47132,246.807,-0.0306451
block_1,2905,9,7156,1,-0.0698816,209.719,2.48446,246.357,-0.0306453
block_1,2906,9,7157,1,-0.125971,194.931,3.34466,228.499,-0.0579817
block_1,2907,9,7158,1,-0.126751,194.157,3.36243,228.082,-0.057982
block_1,2908,9,7159,1,-0.0702563,208.88,2.49759,245.905,-0.0306454
block_1,2909,9,7160,1,-0.0706366,208.036,2.51073,245.45,-0.0306456
block_1,2910,9,7161,1,-0.127543,193.38,3.38019,227.664,-0.0579823
block_1,2911,9,7162,1,-0.128345,192.599,3.39796,227.243,-0.0579825
block_1,2912,9,7163,1,-0.195526,182.124,4.0627,211.712,-0.0931957
block_1,2913,9,7164,1,-0.196797,181.428,4.08474,211.337,-0.0931962
block_1,2914,9,7165,1,-0.286081,166.273,4.78607,193.29,-0.13566
block_1,2915,9,7166,1,-0.288037,165.637,4.81202,192.948,-0.13566
block_1,2916,9,7167,1,-0.198084,180.727,4.10677,210.96,-0.0931966
block_1,2917,9,7168,1,-0.19939,180.023,4.12881,210.581,-0.093197
block_1,2918,9,7169,1,-0.29002,164.998,4.83798,192.603,-0.135661
block_1,2919,9,7170,1,-0.292029,164.355,4.86394,192.257,-0.135662
block_1,2920,9,7171,1,-0.395437,150.43,5.44372,174.875,-0.184743
block_1,2921,9,7172,1,-0.398252,149.854,5.47323,174.565,-0.184743
block_1,2922,9,7173,1,-0.525261,134.593,6.03564,156.467,-0.239814
block_1,2923,9,7174,1,-0.52914,134.078,6.06836,156.19,-0.239815
block_1,2924,9,7175,1,-0.401105,149.276,5.50275,174.254,-0.184744
block_1,2925,9,7176,1,-0.403995,148.694,5.53227,173.941,-0.184745
block_1,2926,9,7177,1,-0.533069,133.561,6.10109,155.911,-0.239816
block_1,2927,9,7178,1,-0.537051,133.04,6.13381,155.631,-0.239817
block_1,2928,9,7179,1,-0.200713,179.316,4.15085,210.2,-0.0931974
block_1,2929,9,7180,1,-0.202054,178.604,4.17289,209.817,-0.0931979
block_1,2930,9,7181,1,-0.294065,163.709,4.8899,191.909,-0.135662
block_1,2931,9,7182,1,-0.296129,163.059,4.91585,191.559,-0.135663
block_1,2932,9,7183,1,-0.203413,177.889,4.19493,209.431,-0.0931983
block_1,2933,9,7184,1,-0.204792,177.17,4.21697,209.044,-0.0931987
block_1,2934,9,7185,1,-0.298221,162.406,4.94181,191.207,-0.135663
block_1,2935,9,7186,1,-0.300341,161.75,4.96777,190.854,-0.135664
block_1,2936,9,7187,1,-0.406925,148.11,5.56179,173.626,-0.184746
block_1,2937,9,7188,1,-0.409894,147.522,5.59131,173.309,-0.184747
block_1,2938,9,7189,1,-0.541086,132.517,6.16653,155.349,-0.239819
block_1,2939,9,7190,1,-0.545175,131.991,6.19926,155.066,-0.23982
block_1,2940,9,7191,1,-0.412903,146.931,5.62083,172.991,-0.184748
block_1,2941,9,7192,1,-0.415953,146.337,5.65035,172.671,-0.184748
block_1,2942,9,7193,1,-0.54932,131.463,6.23198,154.781,-0.239821
block_1,2943,9,7194,1,-0.553519,130.931,6.26471,154.495,-0.239822
block_1,2944,9,7195,1,-0.639401,122.309,6.27726,139.975,-0.300234
block_1,2945,9,7196,1,-0.644085,121.874,6.31283,139.741,-0.300236
block_1,2946,9,7197,1,-0.809315,106.011,6.71778,121.324,-0.365392
block_1,2947,9,7198,1,-0.815493,105.634,6.75585,121.121,-0.365393
block_1,2948,9,7199,1,-0.64883,121.437,6.3484,139.506,-0.300237
block_1,2949,9,7200,1,-0.653637,120.997,6.38397,139.269,-0.300238
block_1,2950,9,7201,1,-0.82175,105.255,6.79391,120.917,-0.365395
block_1,2951,9,7202,1,-0.828088,104.874,6.83198,120.712,-0.365396
block_1,2952,9,7203,1,-1.01471,89.7178,7.09543,102.677,-0.434647
block_1,2953,9,7204,1,-1.02282,89.3989,7.13563,102.505,-0.434649
block_1,2954,9,7205,1,-1.27294,73.4286,7.4102,84.0345,-0.507371
block_1,2955,9,7206,1,-1.28362,73.1676,7.45219,83.8939,-0.507374
block_1,2956,9,7207,1,-1.03102,89.0783,7.17584,102.333,-0.434651
block_1,2957,9,7208,1,-1.03933,88.7558,7.21604,102.159,-0.434653
block_1,2958,9,7209,1,-1.29444,72.9052,7.49417,83.7526,-0.507376
block_1,2959,9,7210,1,-1.3054,72.6414,7.53616,83.6104,-0.507378
block_1,2960,9,7211,1,-0.658505,120.555,6.41954,139.031,-0.30024
block_1,2961,9,7212,1,-0.663437,120.111,6.45512,138.791,-0.300241
block_1,2962,9,7213,1,-0.834506,104.491,6.87004,120.505,-0.365398
block_1,2963,9,7214,1,-0.841008,104.106,6.90811,120.298,-0.365399
block_1,2964,9,7215,1,-0.668434,119.664,6.49069,138.55,-0.300242
block_1,2965,9,7216,1,-0.673495,119.214,6.52626,138.308,-0.300243
block_1,2966,9,7217,1,-0.847594,103.718,6.94618,120.089,-0.365401
block_1,2967,9,7218,1,-0.854265,103.329,6.98424,119.879,-0.365402
block_1,2968,9,7219,1,-1.04775,88.4316,7.25624,101.984,-0.434655
block_1,2969,9,7220,1,-1.05627,88.1055,7.29645,101.809,-0.434656
block_1,2970,9,7221,1,-1.3165,72.376,7.57814,83.4675,-0.50738
block_1,2971,9,7222,1,-1.32773,72.1092,7.62013,83.3238,-0.507382
block_1,2972,9,7223,1,-1.0649,87.7777,7.33665,101.632,-0.434658
block_1,2973,9,7224,1,-1.07364,87.448,7.37685,101.455,-0.43466
block_1,2974,9,7225,1,-1.3391,71.8409,7.66211,83.1792,-0.507384
block_1,2975,9,7226,1,-1.35062,71.5711,7.7041,83.0339,-0.507386
block_1,2976,9,7227,1,-1.62052,57.1426,7.6621,65.395,-0.582934
block_1,2977,9,7228,1,-1.63491,56.9396,7.70551,65.2856,-0.582937
block_1,2978,9,7229,1,-2.14597,40.8591,7.85112,46.7579,-0.660706
block_1,2979,9,7230,1,-2.16616,40.714,7.8956,46.6797,-0.660708
block_1,2980,9,7231,1,-1.64947,56.7354,7.74892,65.1756,-0.582939
block_1,2981,9,7232,1,-1.66421,56.5301,7.79233,65.065,-0.582942
block_1,2982,9,7233,1,-2.18658,40.568,7.94007,46.6011,-0.660711
block_1,2983,9,7234,1,-2.20724,40.4213,7.98455,46.5221,-0.660714
block_1,2984,9,7235,1,-3.11564,24.5774,7.97726,28.1226,-0.740056
block_1,2985,9,7236,1,-3.14595,24.4902,8.02245,28.0757,-0.740059
block_1,2986,9,7237,1,-5.60794,8.29672,8.04052,9.48844,-0.820354
block_1,2987,9,7238,1,-5.65376,8.26741,8.08607,9.47264,-0.820357
block_1,2988,9,7239,1,-3.17656,24.4025,8.06764,28.0284,-0.740062
block_1,2989,9,7240,1,-3.20746,24.3143,8.11284,27.9809,-0.740065
block_1,2990,9,7241,1,-5.69975,8.23794,8.13162,9.45676,-0.820361
block_1,2991,9,7242,1,-5.74593,8.2083,8.17717,9.44079,-0.820364
block_1,2992,9,7243,1,-1.67913,56.3236,7.83574,64.9538,-0.582944
block_1,2993,9,7244,1,-1.69424,56.116,7.87915,64.842,-0.582946
block_1,2994,9,7245,1,-2.22813,40.2737,8.02903,46.4426,-0.660717
block_1,2995,9,7246,1,-2.24926,40.1253,8.07351,46.3626,-0.660719
block_1,2996,9,7247,1,-1.70952,55.9072,7.92256,64.7295,-0.582949
block_1,2997,9,7248,1,-1.725,55.6973,7.96597,64.6164,-0.582951
block_1,2998,9,7249,1,-2.27063,39.9761,8.11799,46.2822,-0.660722
block_1,2999,9,7250,1,-2.29225,39.826,8.16248,46.2014,-0.660725
block_1,3000,9,7251,1,-3.23865,24.2256,8.15803,27.9331,-0.740068
block_1,3001,9,7252,1,-3.27015,24.1364,8.20322,27.8851,-0.740071
block_1,3002,9,7253,1,-5.79229,8.1785,8.22272,9.42474,-0.820367
block_1,3003,9,7254,1,-5.83884,8.14853,8.26828,9.40859,-0.820371
block_1,3004,9,7255,1,-3.30194,24.0467,8.24842,27.8368,-0.740074
block_1,3005,9,7256,1,-3.33404,23.9565,8.29361,27.7882,-0.740077
block_1,3006,9,7257,1,-5.88556,8.1184,8.31383,9.39235,-0.820374
block_1,3007,9,7258,1,-5.93247,8.0881,8.35938,9.37603,-0.820377
block_1,3008,9,7259,1,-0.678623,118.763,6.56184,138.065,-0.300245
block_1,3009,9,7260,1,-0.683818,118.308,6.59741,137.82,-0.300246
block_1,3010,9,7261,1,-0.861023,102.937,7.02231,119.668,-0.365404
block_1,3011,9,7262,1,-0.867869,102.543,7.06038,119.456,-0.365406
block_1,3012,9,7263,1,-0.689081,117.852,6.63298,137.574,-0.300247
block_1,3013,9,7264,1,-0.694414,117.392,6.66856,137.327,-0.300249
block_1,3014,9,7265,1,-0.874805,102.148,7.09844,119.243,-0.365407
block_1,3015,9,7266,1,-0.881831,101.75,7.13651,119.029,-0.365409
block_1,3016,9,7267,1,-1.0825,87.1166,7.41706,101.276,-0.434662
block_1,3017,9,7268,1,-1.09147,86.7834,7.45726,101.097,-0.434664
block_1,3018,9,7269,1,-1.36229,71.2998,7.74608,82.8878,-0.507389
block_1,3019,9,7270,1,-1.3741,71.0271,7.78807,82.7409,-0.507391
block_1,3020,9,7271,1,-1.10055,86.4483,7.49747,100.916,-0.434666
block_1,3021,9,7272,1,-1.10975,86.1115,7.53767,100.735,-0.434668
block_1,3022,9,7273,1,-1.38606,70.7529,7.83006,82.5932,-0.507393
block_1,3023,9,7274,1,-1.39818,70.4773,7.87204,82.4447,-0.507395
block_1,3024,9,7275,1,-0.699818,116.931,6.70413,137.078,-0.30025
block_1,3025,9,7276,1,-0.705294,116.467,6.73971,136.828,-0.300251
block_1,3026,9,7277,1,-0.88895,101.349,7.17458,118.813,-0.36541
block_1,3027,9,7278,1,-0.896163,100.947,7.21265,118.596,-0.365412
block_1,3028,9,7279,1,-0.710842,116,6.77528,136.577,-0.300253
block_1,3029,9,7280,1,-0.716465,115.531,6.81086,136.324,-0.300254
block_1,3030,9,7281,1,-0.903472,100.543,7.25072,118.378,-0.365414
block_1,3031,9,7282,1,-0.910877,100.136,7.28878,118.159,-0.365415
block_1,3032,9,7283,1,-1.11908,85.7728,7.57788,100.552,-0.43467
block_1,3033,9,7284,1,-1.12852,85.4324,7.61808,100.369,-0.434671
block_1,3034,9,7285,1,-1.41045,70.2001,7.91403,82.2954,-0.507397
block_1,3035,9,7286,1,-1.42288,69.9215,7.95602,82.1454,-0.5074
block_1,3036,9,7287,1,-1.13809,85.0901,7.65829,100.185,-0.434673
block_1,3037,9,7288,1,-1.14778,84.7461,7.6985,99.9992,-0.434675
block_1,3038,9,7289,1,-1.43547,69.6414,7.99801,81.9945,-0.507402
block_1,3039,9,7290,1,-1.44822,69.3599,8.03999,81.8428,-0.507404
block_1,3040,9,7291,1,-1.74067,55.4863,8.00938,64.5027,-0.582954
block_1,3041,9,7292,1,-1.75653,55.2741,8.05279,64.3884,-0.582956
block_1,3042,9,7293,1,-2.31412,39.6752,8.20696,46.1202,-0.660728
block_1,3043,9,7294,1,-2.33624,39.5235,8.25144,46.0385,-0.66073
block_1,3044,9,7295,1,-1.77258,55.0607,8.09621,64.2735,-0.582959
block_1,3045,9,7296,1,-1.78884,54.8462,8.13962,64.158,-0.582961
block_1,3046,9,7297,1,-2.35862,39.371,8.29592,45.9563,-0.660733
block_1,3047,9,7298,1,-2.38125,39.2177,8.3404,45.8737,-0.660736
block_1,3048,9,7299,1,-3.36644,23.8659,8.33881,27.7394,-0.74008
block_1,3049,9,7300,1,-3.39915,23.7747,8.384,27.6903,-0.740083
block_1,3050,9,7301,1,-5.97955,8.05764,8.40493,9.35961,-0.820381
block_1,3051,9,7302,1,-6.02682,8.02701,8.45049,9.34311,-0.820384
block_1,3052,9,7303,1,-3.43217,23.6831,8.4292,27.6409,-0.740086
block_1,3053,9,7304,1,-3.46551,23.5909,8.47439,27.5913,-0.740089
block_1,3054,9,7305,1,-6.07427,7.99621,8.49604,9.32652,-0.820388
block_1,3055,9,7306,1,-6.12189,7.96526,8.54159,9.30984,-0.820391
block_1,3056,9,7307,1,-1.80529,54.6306,8.18303,64.0418,-0.582964
block_1,3057,9,7308,1,-1.82195,54.4138,8.22645,63.9251,-0.582966
block_1,3058,9,7309,1,-2.40415,39.0636,8.38489,45.7907,-0.660739
block_1,3059,9,7310,1,-2.42731,38.9086,8.42937,45.7072,-0.660742
block_1,3060,9,7311,1,-1.83882,54.1959,8.26986,63.8077,-0.582969
block_1,3061,9,7312,1,-1.85589,53.9768,8.31327,63.6897,-0.582972
block_1,3062,9,7313,1,-2.45074,38.7529,8.47385,45.6233,-0.660745
block_1,3063,9,7314,1,-2.47444,38.5963,8.51834,45.539,-0.660748
block_1,3064,9,7315,1,-3.49916,23.4983,8.51959,27.5414,-0.740092
block_1,3065,9,7316,1,-3.53313,23.4052,8.56479,27.4912,-0.740096
block_1,3066,9,7317,1,-6.16969,7.93413,8.58715,9.29307,-0.820394
block_1,3067,9,7318,1,-6.21767,7.90285,8.6327,9.27621,-0.820398
block_1,3068,9,7319,1,-3.56742,23.3116,8.60999,27.4408,-0.740099
block_1,3069,9,7320,1,-3.60203,23.2175,8.65518,27.3901,-0.740102
block_1,3070,9,7321,1,-6.26583,7.87139,8.67826,9.25926,-0.820401
block_1,3071,9,7322,1,-6.31417,7.83977,8.72381,9.24223,-0.820405
block_1,3072,9,7323,1,-0.0117627,237.966,0.534431,281.37,-0.00212947
block_1,3073,9,7324,1,-0.0117303,236.987,0.537238,280.843,-0.00212948
block_1,3074,9,7325,1,-0.0317948,222.572,1.56343,263.176,-0.0118179
block_1,3075,9,7326,1,-0.0319019,221.656,1.57158,262.683,-0.011818
block_1,3076,9,7327,1,-0.0116978,236.003,0.540045,280.313,-0.00212949
block_1,3077,9,7328,1,-0.0116653,235.014,0.542852,279.78,-0.0021295
block_1,3078,9,7329,1,-0.0320108,220.735,1.57973,262.187,-0.011818
block_1,3079,9,7330,1,-0.0321218,219.81,1.58788,261.689,-0.0118181
block_1,3080,9,7331,1,-0.0710224,207.188,2.52387,244.993,-0.0306457
block_1,3081,9,7332,1,-0.0714139,206.335,2.537,244.534,-0.0306458
block_1,3082,9,7333,1,-0.129159,191.813,3.41572,226.82,-0.0579828
block_1,3083,9,7334,1,-0.129985,191.023,3.43349,226.394,-0.0579831
block_1,3084,9,7335,1,-0.0718112,205.478,2.55014,244.072,-0.030646
block_1,3085,9,7336,1,-0.0722145,204.616,2.56327,243.608,-0.0306461
block_1,3086,9,7337,1,-0.130822,190.23,3.45126,225.967,-0.0579834
block_1,3087,9,7338,1,-0.131671,189.432,3.46902,225.537,-0.0579836
block_1,3088,9,7339,1,-0.0116329,234.019,0.545659,279.244,-0.00212951
block_1,3089,9,7340,1,-0.0116004,233.02,0.548465,278.706,-0.00212952
block_1,3090,9,7341,1,-0.0322347,218.88,1.59603,261.188,-0.0118181
block_1,3091,9,7342,1,-0.0323496,217.945,1.60418,260.684,-0.0118182
block_1,3092,9,7343,1,-0.011568,232.016,0.551272,278.165,-0.00212954
block_1,3093,9,7344,1,-0.0115355,231.006,0.554078,277.621,-0.00212955
block_1,3094,9,7345,1,-0.0324667,217.005,1.61233,260.178,-0.0118182
block_1,3095,9,7346,1,-0.0325858,216.061,1.62048,259.67,-0.0118183
block_1,3096,9,7347,1,-0.0726237,203.75,2.57641,243.142,-0.0306463
block_1,3097,9,7348,1,-0.0730391,202.88,2.58954,242.673,-0.0306464
block_1,3098,9,7349,1,-0.132532,188.63,3.48679,225.105,-0.0579839
block_1,3099,9,7350,1,-0.133405,187.824,3.50455,224.671,-0.0579842
block_1,3100,9,7351,1,-0.0734607,202.005,2.60268,242.202,-0.0306466
block_1,3101,9,7352,1,-0.0738887,201.125,2.61581,241.728,-0.0306467
block_1,3102,9,7353,1,-0.134292,187.014,3.52232,224.235,-0.0579845
block_1,3103,9,7354,1,-0.13519,186.2,3.54008,223.796,-0.0579848
block_1,3104,9,7355,1,-0.206189,176.447,4.23901,208.655,-0.0931992
block_1,3105,9,7356,1,-0.207606,175.721,4.26105,208.264,-0.0931996
block_1,3106,9,7357,1,-0.30249,161.09,4.99372,190.498,-0.135665
block_1,3107,9,7358,1,-0.30467,160.427,5.01968,190.141,-0.135665
block_1,3108,9,7359,1,-0.209042,174.991,4.28309,207.87,-0.0932
block_1,3109,9,7360,1,-0.210499,174.257,4.30513,207.475,-0.0932005
block_1,3110,9,7361,1,-0.306879,159.76,5.04564,189.782,-0.135666
block_1,3111,9,7362,1,-0.309118,159.09,5.0716,189.421,-0.135667
block_1,3112,9,7363,1,-0.419044,145.74,5.67987,172.349,-0.184749
block_1,3113,9,7364,1,-0.422178,145.14,5.70939,172.026,-0.18475
block_1,3114,9,7365,1,-0.557776,130.397,6.29743,154.207,-0.239823
block_1,3115,9,7366,1,-0.56209,129.86,6.33016,153.918,-0.239824
block_1,3116,9,7367,1,-0.425355,144.536,5.7389,171.701,-0.184751
block_1,3117,9,7368,1,-0.428575,143.93,5.76842,171.374,-0.184752
block_1,3118,9,7369,1,-0.566464,129.32,6.36289,153.627,-0.239825
block_1,3119,9,7370,1,-0.570896,128.777,6.39561,153.334,-0.239826
block_1,3120,9,7371,1,-0.211976,173.519,4.32717,207.078,-0.0932009
block_1,3121,9,7372,1,-0.213474,172.777,4.34921,206.678,-0.0932014
block_1,3122,9,7373,1,-0.311389,158.416,5.09756,189.058,-0.135667
block_1,3123,9,7374,1,-0.313692,157.739,5.12351,188.693,-0.135668
block_1,3124,9,7375,1,-0.214993,172.032,4.37125,206.277,-0.0932018
block_1,3125,9,7376,1,-0.216533,171.283,4.39329,205.873,-0.0932023
block_1,3126,9,7377,1,-0.316026,157.058,5.14947,188.327,-0.135669
block_1,3127,9,7378,1,-0.318394,156.374,5.17543,187.958,-0.135669
block_1,3128,9,7379,1,-0.43184,143.321,5.79795,171.046,-0.184753
block_1,3129,9,7380,1,-0.435149,142.708,5.82747,170.716,-0.184754
block_1,3130,9,7381,1,-0.57539,128.232,6.42834,153.041,-0.239827
block_1,3131,9,7382,1,-0.579946,127.684,6.46106,152.745,-0.239829
block_1,3132,9,7383,1,-0.438505,142.092,5.85699,170.384,-0.184755
block_1,3133,9,7384,1,-0.441908,141.473,5.88651,170.051,-0.184755
block_1,3134,9,7385,1,-0.584564,127.133,6.49379,152.449,-0.23983
block_1,3135,9,7386,1,-0.589247,126.579,6.52652,152.15,-0.239831
block_1,3136,9,7387,1,-0.0115031,229.992,0.556885,277.075,-0.00212956
block_1,3137,9,7388,1,-0.0114708,228.972,0.559691,276.526,-0.00212957
block_1,3138,9,7389,1,-0.0327071,215.112,1.62863,259.158,-0.0118184
block_1,3139,9,7390,1,-0.0328306,214.158,1.63678,258.645,-0.0118184
block_1,3140,9,7391,1,-0.0114384,227.947,0.562497,275.974,-0.00212958
block_1,3141,9,7392,1,-0.0114061,226.918,0.565303,275.419,-0.00212959
block_1,3142,9,7393,1,-0.0329564,213.199,1.64493,258.128,-0.0118185
block_1,3143,9,7394,1,-0.0330844,212.236,1.65307,257.609,-0.0118185
block_1,3144,9,7395,1,-0.0743231,200.242,2.62895,241.252,-0.0306469
block_1,3145,9,7396,1,-0.0747642,199.354,2.64208,240.774,-0.030647
block_1,3146,9,7397,1,-0.136102,185.382,3.55785,223.356,-0.057985
block_1,3147,9,7398,1,-0.137028,184.559,3.57562,222.913,-0.0579853
block_1,3148,9,7399,1,-0.075212,198.461,2.65522,240.293,-0.0306472
block_1,3149,9,7400,1,-0.0756666,197.564,2.66836,239.81,-0.0306473
block_1,3150,9,7401,1,-0.137966,183.733,3.59338,222.468,-0.0579856
block_1,3151,9,7402,1,-0.138919,182.902,3.61115,222.02,-0.0579859
block_1,3152,9,7403,1,-0.0113739,225.883,0.568109,274.862,-0.0021296
block_1,3153,9,7404,1,-0.0113417,224.843,0.570915,274.302,-0.00212961
block_1,3154,9,7405,1,-0.0332148,211.268,1.66122,257.088,-0.0118186
block_1,3155,9,7406,1,-0.0333476,210.295,1.66937,256.564,-0.0118187
block_1,3156,9,7407,1,-0.0113096,223.798,0.57372,273.739,-0.00212962
block_1,3157,9,7408,1,-0.0112775,222.748,0.576526,273.173,-0.00212963
block_1,3158,9,7409,1,-0.0334828,209.317,1.67752,256.038,-0.0118187
block_1,3159,9,7410,1,-0.0336205,208.335,1.68567,255.508,-0.0118188
block_1,3160,9,7411,1,-0.0761283,196.663,2.68149,239.325,-0.0306475
block_1,3161,9,7412,1,-0.076597,195.757,2.69463,238.837,-0.0306477
block_1,3162,9,7413,1,-0.139886,182.068,3.62891,221.571,-0.0579862
block_1,3163,9,7414,1,-0.140866,181.229,3.64668,221.119,-0.0579865
block_1,3164,9,7415,1,-0.0770731,194.847,2.70776,238.346,-0.0306478
block_1,3165,9,7416,1,-0.0775565,193.932,2.7209,237.854,-0.030648
block_1,3166,9,7417,1,-0.141862,180.386,3.66445,220.665,-0.0579868
block_1,3167,9,7418,1,-0.142872,179.539,3.68221,220.209,-0.0579871
block_1,3168,9,7419,1,-0.218096,170.53,4.41533,205.468,-0.0932027
block_1,3169,9,7420,1,-0.219681,169.774,4.43737,205.06,-0.0932032
block_1,3170,9,7421,1,-0.320795,155.687,5.20139,187.588,-0.13567
block_1,3171,9,7422,1,-0.32323,154.996,5.22735,187.216,-0.135671
block_1,3172,9,7423,1,-0.221289,169.013,4.45941,204.651,-0.0932036
block_1,3173,9,7424,1,-0.222919,168.249,4.48145,204.239,-0.0932041
block_1,3174,9,7425,1,-0.3257,154.302,5.25331,186.842,-0.135671
block_1,3175,9,7426,1,-0.328205,153.604,5.27927,186.466,-0.135672
block_1,3176,9,7427,1,-0.445359,140.851,5.91603,169.716,-0.184756
block_1,3177,9,7428,1,-0.448858,140.226,5.94555,169.379,-0.184757
block_1,3178,9,7429,1,-0.593994,126.022,6.55925,151.851,-0.239832
block_1,3179,9,7430,1,-0.598809,125.463,6.59197,151.549,-0.239833
block_1,3180,9,7431,1,-0.452406,139.598,5.97507,169.041,-0.184758
block_1,3181,9,7432,1,-0.456005,138.967,6.00459,168.701,-0.184759
block_1,3182,9,7433,1,-0.60369,124.901,6.6247,151.247,-0.239834
block_1,3183,9,7434,1,-0.608641,124.336,6.65743,150.942,-0.239835
block_1,3184,9,7435,1,-0.224574,167.481,4.50349,203.826,-0.0932046
block_1,3185,9,7436,1,-0.226253,166.71,4.52553,203.41,-0.093205
block_1,3186,9,7437,1,-0.330746,152.903,5.30523,186.089,-0.135673
block_1,3187,9,7438,1,-0.333323,152.199,5.33119,185.709,-0.135673
block_1,3188,9,7439,1,-0.227956,165.934,4.54758,202.992,-0.0932055
block_1,3189,9,7440,1,-0.229684,165.155,4.56962,202.573,-0.093206
block_1,3190,9,7441,1,-0.335938,151.491,5.35715,185.328,-0.135674
block_1,3191,9,7442,1,-0.338591,150.779,5.38311,184.945,-0.135675
block_1,3192,9,7443,1,-0.459655,138.332,6.03411,168.359,-0.18476
block_1,3193,9,7444,1,-0.463357,137.695,6.06364,168.016,-0.184761
block_1,3194,9,7445,1,-0.613662,123.768,6.69016,150.637,-0.239837
block_1,3195,9,7446,1,-0.618754,123.198,6.72289,150.329,-0.239838
block_1,3196,9,7447,1,-0.467113,137.054,6.09316,167.671,-0.184762
block_1,3197,9,7448,1,-0.470923,136.411,6.12268,167.324,-0.184763
block_1,3198,9,7449,1,-0.623918,122.625,6.75561,150.021,-0.239839
block_1,3199,9,7450,1,-0.629157,122.049,6.78834,149.71,-0.23984
block_1,3200,9,7451,1,-0.722164,115.059,6.84643,136.07,-0.300256
block_1,3201,9,7452,1,-0.727939,114.586,6.88201,135.815,-0.300257
block_1,3202,9,7453,1,-0.918381,99.7276,7.32685,117.939,-0.365417
block_1,3203,9,7454,1,-0.925986,99.3168,7.36492,117.718,-0.365419
block_1,3204,9,7455,1,-0.733792,114.109,6.91758,135.559,-0.300258
block_1,3205,9,7456,1,-0.739725,113.63,6.95316,135.301,-0.30026
block_1,3206,9,7457,1,-0.933692,98.9039,7.40299,117.496,-0.36542
block_1,3207,9,7458,1,-0.941503,98.4888,7.44106,117.272,-0.365422
block_1,3208,9,7459,1,-1.15761,84.4002,7.7387,99.8129,-0.434677
block_1,3209,9,7460,1,-1.16756,84.0526,7.77891,99.6257,-0.434679
block_1,3210,9,7461,1,-1.46113,69.0768,8.08198,81.6904,-0.507406
block_1,3211,9,7462,1,-1.47422,68.7923,8.12397,81.5371,-0.507409
block_1,3212,9,7463,1,-1.17764,83.7032,7.81912,99.4375,-0.434681
block_1,3213,9,7464,1,-1.18786,83.3519,7.85933,99.2483,-0.434683
block_1,3214,9,7465,1,-1.48747,68.5063,8.16596,81.3831,-0.507411
block_1,3215,9,7466,1,-1.5009,68.2189,8.20795,81.2283,-0.507413
block_1,3216,9,7467,1,-0.745739,113.149,6.98873,135.041,-0.300261
block_1,3217,9,7468,1,-0.751835,112.665,7.02431,134.781,-0.300263
block_1,3218,9,7469,1,-0.949418,98.0717,7.47913,117.047,-0.365424
block_1,3219,9,7470,1,-0.957442,97.6524,7.5172,116.822,-0.365425
block_1,3220,9,7471,1,-0.758014,112.179,7.05989,134.519,-0.300264
block_1,3221,9,7472,1,-0.764279,111.69,7.09546,134.256,-0.300265
block_1,3222,9,7473,1,-0.965574,97.2309,7.55527,116.595,-0.365427
block_1,3223,9,7474,1,-0.973817,96.8074,7.59335,116.366,-0.365429
block_1,3224,9,7475,1,-1.19821,82.9989,7.89954,99.0581,-0.434685
block_1,3225,9,7476,1,-1.2087,82.644,7.93974,98.867,-0.434687
block_1,3226,9,7477,1,-1.5145,67.93,8.24994,81.0726,-0.507416
block_1,3227,9,7478,1,-1.52828,67.6396,8.29193,80.9162,-0.507418
block_1,3228,9,7479,1,-1.21934,82.2874,7.97995,98.6749,-0.434689
block_1,3229,9,7480,1,-1.23011,81.9289,8.02016,98.4818,-0.434691
block_1,3230,9,7481,1,-1.54224,67.3477,8.33392,80.759,-0.50742
block_1,3231,9,7482,1,-1.55638,67.0543,8.37591,80.601,-0.507423
block_1,3232,9,7483,1,-1.87318,53.7566,8.35669,63.5711,-0.582974
block_1,3233,9,7484,1,-1.89069,53.5352,8.4001,63.4518,-0.582977
block_1,3234,9,7485,1,-2.49841,38.4389,8.56282,45.4542,-0.66075
block_1,3235,9,7486,1,-2.52267,38.2806,8.60731,45.369,-0.660753
block_1,3236,9,7487,1,-1.90842,53.3127,8.44352,63.332,-0.582979
block_1,3237,9,7488,1,-1.92637,53.0891,8.48693,63.2115,-0.582982
block_1,3238,9,7489,1,-2.5472,38.1216,8.65179,45.2833,-0.660756
block_1,3239,9,7490,1,-2.57203,37.9617,8.69628,45.1972,-0.660759
block_1,3240,9,7491,1,-3.63696,23.1229,8.70038,27.3391,-0.740105
block_1,3241,9,7492,1,-3.67223,23.0278,8.74558,27.2879,-0.740108
block_1,3242,9,7493,1,-6.36268,7.80799,8.76937,9.2251,-0.820409
block_1,3243,9,7494,1,-6.41137,7.77604,8.81492,9.20789,-0.820412
block_1,3244,9,7495,1,-3.70783,22.9322,8.79078,27.2364,-0.740112
block_1,3245,9,7496,1,-3.74376,22.8362,8.83598,27.1847,-0.740115
block_1,3246,9,7497,1,-6.46023,7.74393,8.86048,9.19059,-0.820416
block_1,3247,9,7498,1,-6.50927,7.71165,8.90604,9.1732,-0.820419
block_1,3248,9,7499,1,-1.94454,52.8643,8.53035,63.0904,-0.582985
block_1,3249,9,7500,1,-1.96295,52.6383,8.57377,62.9687,-0.582987
block_1,3250,9,7501,1,-2.59714,37.801,8.74076,45.1106,-0.660762
block_1,3251,9,7502,1,-2.62254,37.6395,8.78525,45.0236,-0.660765
block_1,3252,9,7503,1,-1.98159,52.4112,8.61718,62.8464,-0.58299
block_1,3253,9,7504,1,-2.00047,52.183,8.6606,62.7234,-0.582993
block_1,3254,9,7505,1,-2.64825,37.4772,8.82973,44.9362,-0.660768
block_1,3255,9,7506,1,-2.67425,37.3141,8.87422,44.8483,-0.660771
block_1,3256,9,7507,1,-3.78002,22.7396,8.88118,27.1326,-0.740118
block_1,3257,9,7508,1,-3.81663,22.6425,8.92638,27.0804,-0.740122
block_1,3258,9,7509,1,-6.55848,7.67921,8.95159,9.15572,-0.820423
block_1,3259,9,7510,1,-6.60787,7.6466,8.99715,9.13815,-0.820427
block_1,3260,9,7511,1,-3.85358,22.545,8.97158,27.0278,-0.740125
block_1,3261,9,7512,1,-3.89087,22.4469,9.01678,26.975,-0.740128
block_1,3262,9,7513,1,-6.65743,7.61383,9.04271,9.12049,-0.82043
block_1,3263,9,7514,1,-6.70716,7.58089,9.08827,9.10274,-0.820434
block_1,3264,9,7515,1,-0.770631,111.199,7.13104,133.991,-0.300267
block_1,3265,9,7516,1,-0.77707,110.706,7.16662,133.725,-0.300268
block_1,3266,9,7517,1,-0.982173,96.3817,7.63142,116.137,-0.365431
block_1,3267,9,7518,1,-0.990644,95.9539,7.66949,115.907,-0.365432
block_1,3268,9,7519,1,-0.783599,110.21,7.2022,133.458,-0.30027
block_1,3269,9,7520,1,-0.79022,109.711,7.23778,133.19,-0.300271
block_1,3270,9,7521,1,-0.999233,95.524,7.70756,115.675,-0.365434
block_1,3271,9,7522,1,-1.00794,95.0919,7.74563,115.443,-0.365436
block_1,3272,9,7523,1,-1.24104,81.5687,8.06037,98.2878,-0.434693
block_1,3273,9,7524,1,-1.25211,81.2066,8.10058,98.0928,-0.434695
block_1,3274,9,7525,1,-1.57072,66.7595,8.4179,80.4422,-0.507425
block_1,3275,9,7526,1,-1.58524,66.4632,8.4599,80.2826,-0.507427
block_1,3276,9,7527,1,-1.26333,80.8428,8.14079,97.8968,-0.434697
block_1,3277,9,7528,1,-1.2747,80.4771,8.181,97.6998,-0.4347
block_1,3278,9,7529,1,-1.59996,66.1655,8.50189,80.1222,-0.50743
block_1,3279,9,7530,1,-1.61487,65.8662,8.54388,79.9611,-0.507432
block_1,3280,9,7531,1,-0.796934,109.21,7.27335,132.92,-0.300273
block_1,3281,9,7532,1,-0.803742,108.707,7.30893,132.649,-0.300274
block_1,3282,9,7533,1,-1.01677,94.6577,7.78371,115.209,-0.365438
block_1,3283,9,7534,1,-1.02572,94.2214,7.82178,114.974,-0.365439
block_1,3284,9,7535,1,-0.810647,108.201,7.34451,132.376,-0.300276
block_1,3285,9,7536,1,-0.817651,107.693,7.38009,132.103,-0.300277
block_1,3286,9,7537,1,-1.0348,93.783,7.85985,114.737,-0.365441
block_1,3287,9,7538,1,-1.044,93.3424,7.89793,114.5,-0.365443
block_1,3288,9,7539,1,-1.28624,80.1097,8.22121,97.5019,-0.434702
block_1,3289,9,7540,1,-1.29793,79.7404,8.26142,97.303,-0.434704
block_1,3290,9,7541,1,-1.62999,65.5655,8.58587,79.7991,-0.507435
block_1,3291,9,7542,1,-1.64531,65.2633,8.62787,79.6363,-0.507437
block_1,3292,9,7543,1,-1.30978,79.3694,8.30163,97.1032,-0.434706
block_1,3293,9,7544,1,-1.3218,78.9965,8.34185,96.9024,-0.434708
block_1,3294,9,7545,1,-1.66083,64.9597,8.66986,79.4728,-0.507439
block_1,3295,9,7546,1,-1.67657,64.6545,8.71185,79.3084,-0.507442
block_1,3296,9,7547,1,-2.01959,51.9536,8.70402,62.5999,-0.582995
block_1,3297,9,7548,1,-2.03895,51.723,8.74743,62.4757,-0.582998
block_1,3298,9,7549,1,-2.70056,37.1501,8.91871,44.76,-0.660774
block_1,3299,9,7550,1,-2.72718,36.9853,8.96319,44.6713,-0.660777
block_1,3300,9,7551,1,-2.05856,51.4914,8.79085,62.3509,-0.583001
block_1,3301,9,7552,1,-2.07842,51.2585,8.83427,62.2255,-0.583003
block_1,3302,9,7553,1,-2.75411,36.8197,9.00768,44.5821,-0.66078
block_1,3303,9,7554,1,-2.78136,36.6533,9.05217,44.4924,-0.660783
block_1,3304,9,7555,1,-3.92851,22.3484,9.06198,26.9219,-0.740132
block_1,3305,9,7556,1,-3.9665,22.2494,9.10718,26.8686,-0.740135
block_1,3306,9,7557,1,-6.75706,7.54779,9.13382,9.0849,-0.820438
block_1,3307,9,7558,1,-6.80714,7.51452,9.17938,9.06698,-0.820441
block_1,3308,9,7559,1,-4.00484,22.1499,9.15238,26.815,-0.740138
block_1,3309,9,7560,1,-4.04354,22.0499,9.19758,26.7611,-0.740142
block_1,3310,9,7561,1,-6.85739,7.48109,9.22494,9.04897,-0.820445
block_1,3311,9,7562,1,-6.90782,7.44749,9.2705,9.03086,-0.820449
block_1,3312,9,7563,1,-2.09854,51.0245,8.87769,62.0995,-0.583006
block_1,3313,9,7564,1,-2.11892,50.7894,8.92111,61.9728,-0.583009
block_1,3314,9,7565,1,-2.80894,36.4861,9.09666,44.4023,-0.660786
block_1,3315,9,7566,1,-2.83683,36.318,9.14115,44.3118,-0.66079
block_1,3316,9,7567,1,-2.13956,50.5532,8.96453,61.8456,-0.583012
block_1,3317,9,7568,1,-2.16047,50.3157,9.00795,61.7177,-0.583015
block_1,3318,9,7569,1,-2.86506,36.1491,9.18564,44.2208,-0.660793
block_1,3319,9,7570,1,-2.89363,35.9794,9.23013,44.1294,-0.660796
block_1,3320,9,7571,1,-4.08259,21.9494,9.24278,26.707,-0.740145
block_1,3321,9,7572,1,-4.12201,21.8484,9.28799,26.6526,-0.740149
block_1,3322,9,7573,1,-6.95841,7.41373,9.31606,9.01267,-0.820453
block_1,3323,9,7574,1,-7.00917,7.3798,9.36162,8.99439,-0.820456
block_1,3324,9,7575,1,-4.16179,21.7469,9.33319,26.5979,-0.740152
block_1,3325,9,7576,1,-4.20194,21.6449,9.37839,26.543,-0.740156
block_1,3326,9,7577,1,-7.06011,7.34571,9.40718,8.97602,-0.82046
block_1,3327,9,7578,1,-7.11121,7.31145,9.45274,8.95757,-0.820464
block_1,3328,9,7579,1,-0.0112455,221.693,0.579331,272.605,-0.00212964
block_1,3329,9,7580,1,-0.0112136,220.633,0.582137,272.034,-0.00212965
block_1,3330,9,7581,1,-0.0337608,207.348,1.69382,254.977,-0.0118188
block_1,3331,9,7582,1,-0.0339037,206.356,1.70197,254.443,-0.0118189
block_1,3332,9,7583,1,-0.0111817,219.567,0.584942,271.46,-0.00212967
block_1,3333,9,7584,1,-0.01115,218.497,0.587747,270.884,-0.00212968
block_1,3334,9,7585,1,-0.0340492,205.36,1.71011,253.906,-0.011819
block_1,3335,9,7586,1,-0.0341975,204.358,1.71826,253.367,-0.011819
block_1,3336,9,7587,1,-0.0780475,193.013,2.73403,237.359,-0.0306481
block_1,3337,9,7588,1,-0.0785462,192.09,2.74717,236.862,-0.0306483
block_1,3338,9,7589,1,-0.143898,178.688,3.69998,219.751,-0.0579874
block_1,3339,9,7590,1,-0.144939,177.833,3.71775,219.29,-0.0579877
block_1,3340,9,7591,1,-0.0790528,191.162,2.76031,236.362,-0.0306484
block_1,3341,9,7592,1,-0.0795674,190.23,2.77344,235.86,-0.0306486
block_1,3342,9,7593,1,-0.145996,176.974,3.73551,218.827,-0.057988
block_1,3343,9,7594,1,-0.147069,176.111,3.75328,218.362,-0.0579883
block_1,3344,9,7595,1,-0.0111183,217.422,0.590552,270.305,-0.00212969
block_1,3345,9,7596,1,-0.0110868,216.341,0.593357,269.723,-0.0021297
block_1,3346,9,7597,1,-0.0343485,203.352,1.72641,252.825,-0.0118191
block_1,3347,9,7598,1,-0.0345024,202.341,1.73456,252.28,-0.0118191
block_1,3348,9,7599,1,-0.0110553,215.256,0.596162,269.138,-0.00212971
block_1,3349,9,7600,1,-0.011024,214.165,0.598967,268.551,-0.00212972
block_1,3350,9,7601,1,-0.0346591,201.326,1.74271,251.733,-0.0118192
block_1,3351,9,7602,1,-0.0348189,200.306,1.75086,251.184,-0.0118193
block_1,3352,9,7603,1,-0.0800901,189.293,2.78658,235.355,-0.0306488
block_1,3353,9,7604,1,-0.0806213,188.352,2.79971,234.848,-0.0306489
block_1,3354,9,7605,1,-0.148158,175.244,3.77105,217.895,-0.0579886
block_1,3355,9,7606,1,-0.149264,174.372,3.78881,217.426,-0.0579889
block_1,3356,9,7607,1,-0.0811609,187.406,2.81285,234.339,-0.0306491
block_1,3357,9,7608,1,-0.0817093,186.456,2.82598,233.827,-0.0306492
block_1,3358,9,7609,1,-0.150387,173.497,3.80658,216.954,-0.0579892
block_1,3359,9,7610,1,-0.151528,172.617,3.82435,216.481,-0.0579895
block_1,3360,9,7611,1,-0.231438,164.372,4.59166,202.151,-0.0932064
block_1,3361,9,7612,1,-0.233218,163.585,4.6137,201.727,-0.0932069
block_1,3362,9,7613,1,-0.341283,150.064,5.40907,184.56,-0.135675
block_1,3363,9,7614,1,-0.344014,149.346,5.43503,184.173,-0.135676
block_1,3364,9,7615,1,-0.235024,162.795,4.63574,201.302,-0.0932074
block_1,3365,9,7616,1,-0.236857,162.001,4.65778,200.874,-0.0932079
block_1,3366,9,7617,1,-0.346785,148.624,5.46099,183.784,-0.135677
block_1,3367,9,7618,1,-0.349598,147.899,5.48695,183.394,-0.135677
block_1,3368,9,7619,1,-0.474788,135.764,6.1522,166.976,-0.184764
block_1,3369,9,7620,1,-0.478709,135.114,6.18173,166.626,-0.184765
block_1,3370,9,7621,1,-0.634471,121.47,6.82107,149.399,-0.239841
block_1,3371,9,7622,1,-0.639863,120.888,6.8538,149.085,-0.239843
block_1,3372,9,7623,1,-0.482688,134.461,6.21125,166.274,-0.184765
block_1,3373,9,7624,1,-0.486725,133.805,6.24077,165.921,-0.184766
block_1,3374,9,7625,1,-0.645332,120.304,6.88653,148.771,-0.239844
block_1,3375,9,7626,1,-0.650882,119.717,6.91926,148.454,-0.239845
block_1,3376,9,7627,1,-0.238718,161.203,4.67982,200.444,-0.0932084
block_1,3377,9,7628,1,-0.240607,160.401,4.70187,200.012,-0.0932088
block_1,3378,9,7629,1,-0.352452,147.17,5.51291,183.001,-0.135678
block_1,3379,9,7630,1,-0.355349,146.438,5.53887,182.607,-0.135679
block_1,3380,9,7631,1,-0.242525,159.596,4.72391,199.578,-0.0932093
block_1,3381,9,7632,1,-0.244472,158.786,4.74595,199.143,-0.0932098
block_1,3382,9,7633,1,-0.35829,145.703,5.56483,182.211,-0.135679
block_1,3383,9,7634,1,-0.361275,144.964,5.59079,181.813,-0.13568
block_1,3384,9,7635,1,-0.490822,133.145,6.2703,165.566,-0.184767
block_1,3385,9,7636,1,-0.49498,132.483,6.29982,165.209,-0.184768
block_1,3386,9,7637,1,-0.656513,119.127,6.95199,148.137,-0.239846
block_1,3387,9,7638,1,-0.662226,118.534,6.98472,147.818,-0.239847
block_1,3388,9,7639,1,-0.4992,131.817,6.32934,164.85,-0.184769
block_1,3389,9,7640,1,-0.503483,131.149,6.35887,164.49,-0.18477
block_1,3390,9,7641,1,-0.668025,117.939,7.01745,147.497,-0.239849
block_1,3391,9,7642,1,-0.67391,117.34,7.05018,147.175,-0.23985
block_1,3392,9,7643,1,-0.0109928,213.069,0.601772,267.961,-0.00212973
block_1,3393,9,7644,1,-0.0109618,211.968,0.604576,267.368,-0.00212975
block_1,3394,9,7645,1,-0.0349816,199.281,1.75901,250.632,-0.0118193
block_1,3395,9,7646,1,-0.0351475,198.251,1.76715,250.077,-0.0118194
block_1,3396,9,7647,1,-0.0109309,210.863,0.607381,266.772,-0.00212976
block_1,3397,9,7648,1,-0.0109001,209.752,0.610185,266.174,-0.00212977
block_1,3398,9,7649,1,-0.0353165,197.216,1.7753,249.52,-0.0118195
block_1,3399,9,7650,1,-0.0354887,196.177,1.78345,248.96,-0.0118195
block_1,3400,9,7651,1,-0.0822666,185.502,2.83912,233.313,-0.0306494
block_1,3401,9,7652,1,-0.0828329,184.543,2.85226,232.797,-0.0306496
block_1,3402,9,7653,1,-0.152686,171.733,3.84212,216.005,-0.0579898
block_1,3403,9,7654,1,-0.153862,170.845,3.85988,215.526,-0.0579901
block_1,3404,9,7655,1,-0.0834085,183.58,2.86539,232.278,-0.0306497
block_1,3405,9,7656,1,-0.0839935,182.612,2.87853,231.757,-0.0306499
block_1,3406,9,7657,1,-0.155057,169.954,3.87765,215.046,-0.0579904
block_1,3407,9,7658,1,-0.156271,169.058,3.89542,214.564,-0.0579907
block_1,3408,9,7659,1,-0.0108695,208.636,0.61299,265.573,-0.00212978
block_1,3409,9,7660,1,-0.0108391,207.515,0.615794,264.969,-0.00212979
block_1,3410,9,7661,1,-0.0356643,195.133,1.7916,248.398,-0.0118196
block_1,3411,9,7662,1,-0.0358432,194.084,1.79975,247.833,-0.0118197
block_1,3412,9,7663,1,-0.0108089,206.389,0.618598,264.363,-0.0021298
block_1,3413,9,7664,1,-0.0107788,205.257,0.621402,263.753,-0.00212982
block_1,3414,9,7665,1,-0.0360256,193.031,1.80789,247.266,-0.0118197
block_1,3415,9,7666,1,-0.0362116,191.972,1.81604,246.696,-0.0118198
block_1,3416,9,7667,1,-0.0845883,181.64,2.89166,231.234,-0.0306501
block_1,3417,9,7668,1,-0.0851929,180.664,2.9048,230.708,-0.0306502
block_1,3418,9,7669,1,-0.157505,168.158,3.91319,214.079,-0.057991
block_1,3419,9,7670,1,-0.158758,167.253,3.93095,213.592,-0.0579913
block_1,3420,9,7671,1,-0.0858075,179.683,2.91794,230.179,-0.0306504
block_1,3421,9,7672,1,-0.0864325,178.698,2.93107,229.649,-0.0306506
block_1,3422,9,7673,1,-0.160031,166.345,3.94872,213.103,-0.0579916
block_1,3423,9,7674,1,-0.161324,165.433,3.96649,212.611,-0.057992
block_1,3424,9,7675,1,-0.246448,157.973,4.76799,198.705,-0.0932103
block_1,3425,9,7676,1,-0.248456,157.156,4.79004,198.265,-0.0932108
block_1,3426,9,7677,1,-0.364306,144.221,5.61675,181.413,-0.135681
block_1,3427,9,7678,1,-0.367382,143.476,5.64271,181.011,-0.135682
block_1,3428,9,7679,1,-0.250494,156.336,4.81208,197.823,-0.0932113
block_1,3429,9,7680,1,-0.252564,155.512,4.83412,197.379,-0.0932118
block_1,3430,9,7681,1,-0.370506,142.726,5.66868,180.608,-0.135682
block_1,3431,9,7682,1,-0.373678,141.974,5.69464,180.202,-0.135683
block_1,3432,9,7683,1,-0.507831,130.477,6.38839,164.128,-0.184771
block_1,3433,9,7684,1,-0.512244,129.802,6.41792,163.765,-0.184772
block_1,3434,9,7685,1,-0.679883,116.739,7.08291,146.851,-0.239851
block_1,3435,9,7686,1,-0.685946,116.136,7.11565,146.526,-0.239852
block_1,3436,9,7687,1,-0.516725,129.124,6.44744,163.4,-0.184773
block_1,3437,9,7688,1,-0.521274,128.443,6.47697,163.033,-0.184774
block_1,3438,9,7689,1,-0.6921,115.529,7.14838,146.199,-0.239854
block_1,3439,9,7690,1,-0.698348,114.92,7.18111,145.871,-0.239855
block_1,3440,9,7691,1,-0.254667,154.683,4.85617,196.933,-0.0932123
block_1,3441,9,7692,1,-0.256802,153.852,4.87821,196.485,-0.0932128
block_1,3442,9,7693,1,-0.3769,141.218,5.7206,179.795,-0.135684
block_1,3443,9,7694,1,-0.380171,140.458,5.74656,179.386,-0.135684
block_1,3444,9,7695,1,-0.258972,153.016,4.90025,196.035,-0.0932133
block_1,3445,9,7696,1,-0.261175,152.177,4.9223,195.583,-0.0932138
block_1,3446,9,7697,1,-0.383494,139.695,5.77253,178.975,-0.135685
block_1,3447,9,7698,1,-0.386869,138.929,5.79849,178.562,-0.135686
block_1,3448,9,7699,1,-0.525894,127.759,6.50649,162.665,-0.184775
block_1,3449,9,7700,1,-0.530585,127.072,6.53602,162.295,-0.184776
block_1,3450,9,7701,1,-0.704691,114.307,7.21384,145.541,-0.239856
block_1,3451,9,7702,1,-0.711132,113.692,7.24657,145.21,-0.239857
block_1,3452,9,7703,1,-0.535348,126.381,6.56554,161.923,-0.184777
block_1,3453,9,7704,1,-0.540187,125.688,6.59507,161.549,-0.184778
block_1,3454,9,7705,1,-0.717672,113.075,7.27931,144.877,-0.239859
block_1,3455,9,7706,1,-0.724314,112.454,7.31204,144.543,-0.23986
block_1,3456,9,7707,1,-0.824754,107.182,7.41567,131.828,-0.300278
block_1,3457,9,7708,1,-0.831959,106.669,7.45125,131.551,-0.30028
block_1,3458,9,7709,1,-1.05334,92.8997,7.936,114.262,-0.365445
block_1,3459,9,7710,1,-1.06281,92.4549,7.97407,114.022,-0.365447
block_1,3460,9,7711,1,-0.839269,106.153,7.48683,131.273,-0.300281
block_1,3461,9,7712,1,-0.846684,105.635,7.52241,130.994,-0.300283
block_1,3462,9,7713,1,-1.07241,92.0079,8.01215,113.781,-0.365448
block_1,3463,9,7714,1,-1.08215,91.5588,8.05022,113.54,-0.36545
block_1,3464,9,7715,1,-1.33398,78.6219,8.38206,96.7006,-0.43471
block_1,3465,9,7716,1,-1.34634,78.2454,8.42227,96.4978,-0.434712
block_1,3466,9,7717,1,-1.69252,64.3479,8.75385,79.1433,-0.507444
block_1,3467,9,7718,1,-1.70869,64.0398,8.79584,78.9774,-0.507447
block_1,3468,9,7719,1,-1.35886,77.8671,8.46248,96.2941,-0.434714
block_1,3469,9,7720,1,-1.37157,77.4871,8.5027,96.0894,-0.434717
block_1,3470,9,7721,1,-1.72508,63.7303,8.83784,78.8106,-0.507449
block_1,3471,9,7722,1,-1.74169,63.4193,8.87983,78.6431,-0.507452
block_1,3472,9,7723,1,-0.854207,105.115,7.55799,130.714,-0.300284
block_1,3473,9,7724,1,-0.86184,104.592,7.59357,130.432,-0.300286
block_1,3474,9,7725,1,-1.09203,91.1076,8.0883,113.297,-0.365452
block_1,3475,9,7726,1,-1.10206,90.6543,8.12637,113.052,-0.365454
block_1,3476,9,7727,1,-0.869585,104.066,7.62915,130.149,-0.300288
block_1,3477,9,7728,1,-0.877445,103.538,7.66474,129.865,-0.300289
block_1,3478,9,7729,1,-1.11223,90.1988,8.16445,112.807,-0.365456
block_1,3479,9,7730,1,-1.12255,89.7412,8.20252,112.561,-0.365458
block_1,3480,9,7731,1,-1.38446,77.1052,8.54291,95.8837,-0.434719
block_1,3481,9,7732,1,-1.39753,76.7216,8.58312,95.6771,-0.434721
block_1,3482,9,7733,1,-1.75854,63.1068,8.92183,78.4748,-0.507454
block_1,3483,9,7734,1,-1.77562,62.7928,8.96382,78.3057,-0.507457
block_1,3484,9,7735,1,-1.41078,76.3361,8.62334,95.4695,-0.434723
block_1,3485,9,7736,1,-1.42423,75.9489,8.66355,95.2609,-0.434725
block_1,3486,9,7737,1,-1.79294,62.4773,9.00582,78.1358,-0.507459
block_1,3487,9,7738,1,-1.8105,62.1604,9.04782,77.9651,-0.507462
block_1,3488,9,7739,1,-2.18166,50.0772,9.05137,61.5892,-0.583017
block_1,3489,9,7740,1,-2.20312,49.8375,9.09479,61.4601,-0.58302
block_1,3490,9,7741,1,-2.92253,35.8089,9.27462,44.0376,-0.660799
block_1,3491,9,7742,1,-2.95177,35.6376,9.31911,43.9453,-0.660802
block_1,3492,9,7743,1,-2.22486,49.5966,9.13821,61.3304,-0.583023
block_1,3493,9,7744,1,-2.24689,49.3546,9.18163,61.2,-0.583026
block_1,3494,9,7745,1,-2.98137,35.4654,9.3636,43.8526,-0.660805
block_1,3495,9,7746,1,-3.01132,35.2925,9.40809,43.7594,-0.660809
block_1,3496,9,7747,1,-4.24246,21.5424,9.42359,26.4878,-0.740159
block_1,3497,9,7748,1,-4.28335,21.4395,9.4688,26.4323,-0.740163
block_1,3498,9,7749,1,-7.16249,7.27703,9.4983,8.93902,-0.820468
block_1,3499,9,7750,1,-7.21393,7.24244,9.54387,8.92038,-0.820472
block_1,3500,9,7751,1,-4.32462,21.336,9.514,26.3766,-0.740166
block_1,3501,9,7752,1,-4.36627,21.2321,9.55921,26.3206,-0.74017
block_1,3502,9,7753,1,-7.26554,7.20769,9.58943,8.90166,-0.820475
block_1,3503,9,7754,1,-7.31732,7.17278,9.63499,8.88285,-0.820479
block_1,3504,9,7755,1,-2.26921,49.1115,9.22505,61.0691,-0.583029
block_1,3505,9,7756,1,-2.29183,48.8672,9.26847,60.9375,-0.583032
block_1,3506,9,7757,1,-3.04163,35.1187,9.45258,43.6658,-0.660812
block_1,3507,9,7758,1,-3.0723,34.9441,9.49707,43.5718,-0.660815
block_1,3508,9,7759,1,-2.31475,48.6217,9.31189,60.8053,-0.583034
block_1,3509,9,7760,1,-2.33797,48.3752,9.35532,60.6725,-0.583037
block_1,3510,9,7761,1,-3.10333,34.7686,9.54156,43.4773,-0.660818
block_1,3511,9,7762,1,-3.13475,34.5924,9.58605,43.3823,-0.660821
block_1,3512,9,7763,1,-4.40829,21.1277,9.60441,26.2643,-0.740173
block_1,3513,9,7764,1,-4.45071,21.0227,9.64962,26.2078,-0.740177
block_1,3514,9,7765,1,-7.36927,7.1377,9.68055,8.86394,-0.820483
block_1,3515,9,7766,1,-7.42139,7.10245,9.72612,8.84495,-0.820487
block_1,3516,9,7767,1,-4.49351,20.9173,9.69482,26.151,-0.740181
block_1,3517,9,7768,1,-4.5367,20.8114,9.74003,26.094,-0.740184
block_1,3518,9,7769,1,-7.47367,7.06704,9.77168,8.82587,-0.820491
block_1,3519,9,7770,1,-7.52612,7.03146,9.81724,8.80671,-0.820495
block_1,3520,9,7771,1,-0.885421,103.008,7.70032,129.579,-0.300291
block_1,3521,9,7772,1,-0.893517,102.475,7.7359,129.292,-0.300292
block_1,3522,9,7773,1,-1.13302,89.2815,8.2406,112.313,-0.365459
block_1,3523,9,7774,1,-1.14364,88.8196,8.27868,112.064,-0.365461
block_1,3524,9,7775,1,-0.901733,101.94,7.77148,129.004,-0.300294
block_1,3525,9,7776,1,-0.910073,101.402,7.80706,128.714,-0.300295
block_1,3526,9,7777,1,-1.15443,88.3557,8.31675,111.814,-0.365463
block_1,3527,9,7778,1,-1.16537,87.8896,8.35483,111.563,-0.365465
block_1,3528,9,7779,1,-1.43787,75.5598,8.70377,95.0514,-0.434727
block_1,3529,9,7780,1,-1.45171,75.1689,8.74398,94.8408,-0.43473
block_1,3530,9,7781,1,-1.82831,61.842,9.08981,77.7936,-0.507464
block_1,3531,9,7782,1,-1.84636,61.5222,9.13181,77.6213,-0.507467
block_1,3532,9,7783,1,-1.46575,74.7763,8.7842,94.6294,-0.434732
block_1,3533,9,7784,1,-1.47999,74.3818,8.82441,94.4169,-0.434734
block_1,3534,9,7785,1,-1.86468,61.2008,9.17381,77.4483,-0.50747
block_1,3535,9,7786,1,-1.88325,60.878,9.2158,77.2744,-0.507472
block_1,3536,9,7787,1,-0.91854,100.862,7.84265,128.423,-0.300297
block_1,3537,9,7788,1,-0.927135,100.319,7.87823,128.131,-0.300298
block_1,3538,9,7789,1,-1.17647,87.4213,8.39291,111.311,-0.365467
block_1,3539,9,7790,1,-1.18775,86.951,8.43099,111.058,-0.365469
block_1,3540,9,7791,1,-0.935862,99.7739,7.91381,127.838,-0.3003
block_1,3541,9,7792,1,-0.944723,99.2264,7.9494,127.543,-0.300302
block_1,3542,9,7793,1,-1.19919,86.4785,8.46907,110.803,-0.365471
block_1,3543,9,7794,1,-1.21081,86.0039,8.50714,110.548,-0.365473
block_1,3544,9,7795,1,-1.49445,73.9856,8.86463,94.2035,-0.434736
block_1,3545,9,7796,1,-1.50912,73.5875,8.90484,93.9891,-0.434739
block_1,3546,9,7797,1,-1.90209,60.5537,9.2578,77.0997,-0.507475
block_1,3547,9,7798,1,-1.9212,60.2279,9.2998,76.9243,-0.507477
block_1,3548,9,7799,1,-1.524,73.1876,8.94506,93.7737,-0.434741
block_1,3549,9,7800,1,-1.53911,72.786,8.98528,93.5574,-0.434743
block_1,3550,9,7801,1,-1.94059,59.9007,9.3418,76.748,-0.50748
block_1,3551,9,7802,1,-1.96025,59.572,9.3838,76.571,-0.507483
block_1,3552,9,7803,1,-2.3615,48.1274,9.39874,60.539,-0.58304
block_1,3553,9,7804,1,-2.38535,47.8786,9.44216,60.405,-0.583043
block_1,3554,9,7805,1,-3.16654,34.4153,9.63055,43.287,-0.660825
block_1,3555,9,7806,1,-3.19871,34.2374,9.67504,43.1912,-0.660828
block_1,3556,9,7807,1,-2.40952,47.6285,9.48559,60.2703,-0.583046
block_1,3557,9,7808,1,-2.43401,47.3774,9.52901,60.1351,-0.583049
block_1,3558,9,7809,1,-3.23127,34.0587,9.71953,43.0949,-0.660831
block_1,3559,9,7810,1,-3.26423,33.8792,9.76403,42.9982,-0.660835
block_1,3560,9,7811,1,-4.58028,20.705,9.78524,26.0367,-0.740188
block_1,3561,9,7812,1,-4.62426,20.5981,9.83044,25.9791,-0.740191
block_1,3562,9,7813,1,-7.57874,6.99572,9.86281,8.78745,-0.820499
block_1,3563,9,7814,1,-7.63152,6.95982,9.90837,8.7681,-0.820503
block_1,3564,9,7815,1,-4.66864,20.4907,9.87565,25.9213,-0.740195
block_1,3565,9,7816,1,-4.71343,20.3828,9.92086,25.8631,-0.740199
block_1,3566,9,7817,1,-7.68447,6.92375,9.95394,8.74867,-0.820507
block_1,3567,9,7818,1,-7.73759,6.88751,9.9995,8.72914,-0.820511
block_1,3568,9,7819,1,-2.45884,47.125,9.57243,59.9992,-0.583052
block_1,3569,9,7820,1,-2.48401,46.8716,9.61586,59.8626,-0.583055
block_1,3570,9,7821,1,-3.29758,33.6989,9.80852,42.9011,-0.660838
block_1,3571,9,7822,1,-3.33135,33.5177,9.85302,42.8035,-0.660841
block_1,3572,9,7823,1,-2.50951,46.617,9.65928,59.7255,-0.583058
block_1,3573,9,7824,1,-2.53537,46.3612,9.70271,59.5878,-0.583061
block_1,3574,9,7825,1,-3.36552,33.3357,9.89751,42.7055,-0.660845
block_1,3575,9,7826,1,-3.40011,33.1529,9.94201,42.607,-0.660848
block_1,3576,9,7827,1,-4.75862,20.2745,9.96607,25.8048,-0.740202
block_1,3577,9,7828,1,-4.80422,20.1656,10.0113,25.7461,-0.740206
block_1,3578,9,7829,1,-7.79087,6.85111,10.0451,8.70953,-0.820515
block_1,3579,9,7830,1,-7.84431,6.81455,10.0906,8.68983,-0.820519
block_1,3580,9,7831,1,-4.85023,20.0562,10.0565,25.6872,-0.74021
block_1,3581,9,7832,1,-4.89666,19.9464,10.1017,25.6281,-0.740214
block_1,3582,9,7833,1,-7.89792,6.77782,10.1362,8.67004,-0.820523
block_1,3583,9,7834,1,-7.9517,6.74092,10.1818,8.65016,-0.820528
block_1,3584,9,7835,1,-0.010749,204.121,0.624206,263.141,-0.00212983
block_1,3585,9,7836,1,-0.0107193,202.98,0.62701,262.527,-0.00212984
block_1,3586,9,7837,1,-0.0364011,190.909,1.82419,246.123,-0.0118198
block_1,3587,9,7838,1,-0.0365944,189.842,1.83234,245.548,-0.0118199
block_1,3588,9,7839,1,-0.0106899,201.833,0.629814,261.909,-0.00212985
block_1,3589,9,7840,1,-0.0106607,200.682,0.632618,261.289,-0.00212986
block_1,3590,9,7841,1,-0.0367915,188.769,1.84049,244.971,-0.01182
block_1,3591,9,7842,1,-0.0369925,187.692,1.84864,244.391,-0.01182
block_1,3592,9,7843,1,-0.0870681,177.708,2.94421,229.116,-0.0306507
block_1,3593,9,7844,1,-0.0877144,176.714,2.95734,228.58,-0.0306509
block_1,3594,9,7845,1,-0.162639,164.516,3.98426,212.118,-0.0579923
block_1,3595,9,7846,1,-0.163975,163.596,4.00203,211.622,-0.0579926
block_1,3596,9,7847,1,-0.0883718,175.715,2.97048,228.043,-0.0306511
block_1,3597,9,7848,1,-0.0890404,174.712,2.98362,227.502,-0.0306512
block_1,3598,9,7849,1,-0.165334,162.671,4.01979,211.124,-0.0579929
block_1,3599,9,7850,1,-0.166714,161.743,4.03756,210.624,-0.0579932
block_1,3600,9,7851,1,-0.0106318,199.525,0.635422,260.666,-0.00212988
block_1,3601,9,7852,1,-0.0106031,198.364,0.638226,260.041,-0.00212989
block_1,3602,9,7853,1,-0.0371974,186.61,1.85678,243.808,-0.0118201
block_1,3603,9,7854,1,-0.0374065,185.523,1.86493,243.223,-0.0118202
block_1,3604,9,7855,1,-0.0105747,197.197,0.641029,259.412,-0.0021299
block_1,3605,9,7856,1,-0.0105465,196.025,0.643833,258.781,-0.00212991
block_1,3606,9,7857,1,-0.0376197,184.432,1.87308,242.635,-0.0118202
block_1,3607,9,7858,1,-0.0378371,183.336,1.88123,242.044,-0.0118203
block_1,3608,9,7859,1,-0.0897205,173.705,2.99675,226.96,-0.0306514
block_1,3609,9,7860,1,-0.0904124,172.693,3.00989,226.415,-0.0306516
block_1,3610,9,7861,1,-0.168118,160.81,4.05533,210.122,-0.0579936
block_1,3611,9,7862,1,-0.169545,159.873,4.0731,209.617,-0.0579939
block_1,3612,9,7863,1,-0.0911164,171.677,3.02303,225.868,-0.0306518
block_1,3613,9,7864,1,-0.0918327,170.656,3.03616,225.318,-0.0306519
block_1,3614,9,7865,1,-0.170996,158.932,4.09087,209.11,-0.0579942
block_1,3615,9,7866,1,-0.172472,157.987,4.10864,208.601,-0.0579945
block_1,3616,9,7867,1,-0.263415,151.333,4.94434,195.129,-0.0932143
block_1,3617,9,7868,1,-0.26569,150.487,4.96638,194.673,-0.0932148
block_1,3618,9,7869,1,-0.390298,138.159,5.82445,178.148,-0.135687
block_1,3619,9,7870,1,-0.393781,137.385,5.85042,177.731,-0.135687
block_1,3620,9,7871,1,-0.268002,149.636,4.98843,194.214,-0.0932153
block_1,3621,9,7872,1,-0.270352,148.781,5.01047,193.754,-0.0932158
block_1,3622,9,7873,1,-0.39732,136.609,5.87638,177.313,-0.135688
block_1,3623,9,7874,1,-0.400916,135.828,5.90234,176.893,-0.135689
block_1,3624,9,7875,1,-0.545101,124.991,6.6246,161.174,-0.184779
block_1,3625,9,7876,1,-0.550093,124.292,6.65412,160.797,-0.18478
block_1,3626,9,7877,1,-0.731059,111.831,7.34477,144.207,-0.239861
block_1,3627,9,7878,1,-0.73791,111.205,7.37751,143.87,-0.239863
block_1,3628,9,7879,1,-0.555165,123.589,6.68365,160.419,-0.184781
block_1,3629,9,7880,1,-0.560317,122.883,6.71318,160.039,-0.184782
block_1,3630,9,7881,1,-0.744869,110.576,7.41024,143.531,-0.239864
block_1,3631,9,7882,1,-0.751939,109.944,7.44298,143.191,-0.239865
block_1,3632,9,7883,1,-0.27274,147.923,5.03251,193.292,-0.0932164
block_1,3633,9,7884,1,-0.275167,147.061,5.05456,192.828,-0.0932169
block_1,3634,9,7885,1,-0.404571,135.045,5.92831,176.471,-0.13569
block_1,3635,9,7886,1,-0.408285,134.258,5.95427,176.047,-0.13569
block_1,3636,9,7887,1,-0.277635,146.196,5.0766,192.362,-0.0932174
block_1,3637,9,7888,1,-0.280144,145.326,5.09865,191.893,-0.0932179
block_1,3638,9,7889,1,-0.41206,133.467,5.98023,175.621,-0.135691
block_1,3639,9,7890,1,-0.415897,132.673,6.0062,175.193,-0.135692
block_1,3640,9,7891,1,-0.565553,122.174,6.7427,159.657,-0.184783
block_1,3641,9,7892,1,-0.570873,121.462,6.77223,159.273,-0.184784
block_1,3642,9,7893,1,-0.759121,109.31,7.47571,142.849,-0.239866
block_1,3643,9,7894,1,-0.766419,108.673,7.50844,142.506,-0.239868
block_1,3644,9,7895,1,-0.57628,120.747,6.80176,158.888,-0.184785
block_1,3645,9,7896,1,-0.581775,120.028,6.83129,158.501,-0.184786
block_1,3646,9,7897,1,-0.773835,108.033,7.54118,142.162,-0.239869
block_1,3647,9,7898,1,-0.781371,107.39,7.57391,141.815,-0.23987
block_1,3648,9,7899,1,-0.0105187,194.848,0.646636,258.147,-0.00212993
block_1,3649,9,7900,1,-0.0104911,193.666,0.64944,257.511,-0.00212994
block_1,3650,9,7901,1,-0.038059,182.235,1.88938,241.452,-0.0118204
block_1,3651,9,7902,1,-0.0382853,181.129,1.89753,240.856,-0.0118205
block_1,3652,9,7903,1,-0.0104639,192.479,0.652243,256.872,-0.00212995
block_1,3653,9,7904,1,-0.010437,191.287,0.655047,256.23,-0.00212996
block_1,3654,9,7905,1,-0.0385163,180.019,1.90567,240.258,-0.0118205
block_1,3655,9,7906,1,-0.0387519,178.903,1.91382,239.657,-0.0118206
block_1,3656,9,7907,1,-0.0925617,169.631,3.0493,224.766,-0.0306521
block_1,3657,9,7908,1,-0.0933036,168.602,3.06244,224.212,-0.0306523
block_1,3658,9,7909,1,-0.173973,157.038,4.12641,208.09,-0.0579949
block_1,3659,9,7910,1,-0.1755,156.084,4.14417,207.577,-0.0579952
block_1,3660,9,7911,1,-0.0940587,167.568,3.07557,223.655,-0.0306525
block_1,3661,9,7912,1,-0.0948274,166.53,3.08871,223.096,-0.0306526
block_1,3662,9,7913,1,-0.177053,155.127,4.16194,207.061,-0.0579955
block_1,3663,9,7914,1,-0.178632,154.166,4.17971,206.543,-0.0579959
block_1,3664,9,7915,1,-0.0104104,190.09,0.65785,255.585,-0.00212998
block_1,3665,9,7916,1,-0.0103842,188.888,0.660653,254.937,-0.00212999
block_1,3666,9,7917,1,-0.0389924,177.783,1.92197,239.054,-0.0118207
block_1,3667,9,7918,1,-0.0392378,176.659,1.93012,238.449,-0.0118207
block_1,3668,9,7919,1,-0.0103584,187.681,0.663456,254.287,-0.00213
block_1,3669,9,7920,1,-0.0103329,186.468,0.666259,253.634,-0.00213001
block_1,3670,9,7921,1,-0.0394883,175.529,1.93827,237.84,-0.0118208
block_1,3671,9,7922,1,-0.0397441,174.395,1.94641,237.23,-0.0118209
block_1,3672,9,7923,1,-0.0956099,165.487,3.10185,222.534,-0.0306528
block_1,3673,9,7924,1,-0.0964067,164.44,3.11498,221.97,-0.030653
block_1,3674,9,7925,1,-0.18024,153.2,4.19748,206.023,-0.0579962
block_1,3675,9,7926,1,-0.181876,152.23,4.21525,205.501,-0.0579965
block_1,3676,9,7927,1,-0.0972181,163.388,3.12812,221.404,-0.0306532
block_1,3677,9,7928,1,-0.0980444,162.332,3.14126,220.835,-0.0306533
block_1,3678,9,7929,1,-0.183541,151.257,4.23302,204.977,-0.0579969
block_1,3679,9,7930,1,-0.185235,150.279,4.25079,204.45,-0.0579972
block_1,3680,9,7931,1,-0.282695,144.453,5.12069,191.423,-0.0932185
block_1,3681,9,7932,1,-0.285289,143.576,5.14274,190.951,-0.093219
block_1,3682,9,7933,1,-0.419799,131.876,6.03216,174.764,-0.135693
block_1,3683,9,7934,1,-0.423765,131.075,6.05813,174.333,-0.135693
block_1,3684,9,7935,1,-0.287927,142.695,5.16478,190.476,-0.0932195
block_1,3685,9,7936,1,-0.290611,141.81,5.18683,190,-0.09322
block_1,3686,9,7937,1,-0.427798,130.271,6.08409,173.9,-0.135694
block_1,3687,9,7938,1,-0.4319,129.463,6.11006,173.465,-0.135695
block_1,3688,9,7939,1,-0.587362,119.307,6.86082,158.112,-0.184787
block_1,3689,9,7940,1,-0.59304,118.582,6.89034,157.722,-0.184788
block_1,3690,9,7941,1,-0.78903,106.744,7.60665,141.468,-0.239872
block_1,3691,9,7942,1,-0.796816,106.096,7.63939,141.119,-0.239873
block_1,3692,9,7943,1,-0.598814,117.854,6.91987,157.33,-0.184789
block_1,3693,9,7944,1,-0.604684,117.124,6.9494,156.937,-0.18479
block_1,3694,9,7945,1,-0.80473,105.445,7.67212,140.768,-0.239874
block_1,3695,9,7946,1,-0.812776,104.791,7.70486,140.416,-0.239876
block_1,3696,9,7947,1,-0.29334,140.922,5.20887,189.521,-0.0932206
block_1,3697,9,7948,1,-0.296117,140.03,5.23092,189.041,-0.0932211
block_1,3698,9,7949,1,-0.436071,128.652,6.13602,173.028,-0.135696
block_1,3699,9,7950,1,-0.440315,127.838,6.16199,172.589,-0.135696
block_1,3700,9,7951,1,-0.298942,139.134,5.25297,188.559,-0.0932217
block_1,3701,9,7952,1,-0.301817,138.235,5.27501,188.074,-0.0932222
block_1,3702,9,7953,1,-0.444631,127.02,6.18796,172.149,-0.135697
block_1,3703,9,7954,1,-0.449022,126.198,6.21392,171.706,-0.135698
block_1,3704,9,7955,1,-0.610654,116.39,6.97893,156.542,-0.184791
block_1,3705,9,7956,1,-0.616726,115.653,7.00846,156.145,-0.184792
block_1,3706,9,7957,1,-0.820957,104.134,7.73759,140.062,-0.239877
block_1,3707,9,7958,1,-0.829275,103.475,7.77033,139.707,-0.239878
block_1,3708,9,7959,1,-0.622901,114.913,7.03799,155.746,-0.184793
block_1,3709,9,7960,1,-0.629183,114.169,7.06752,155.346,-0.184794
block_1,3710,9,7961,1,-0.837735,102.812,7.80307,139.35,-0.23988
block_1,3711,9,7962,1,-0.84634,102.147,7.83581,138.992,-0.239881
block_1,3712,9,7963,1,-0.953721,98.6763,7.98498,127.246,-0.300303
block_1,3713,9,7964,1,-0.962859,98.1238,8.02057,126.949,-0.300305
block_1,3714,9,7965,1,-1.2226,85.5271,8.54522,110.291,-0.365475
block_1,3715,9,7966,1,-1.23458,85.0482,8.5833,110.033,-0.365477
block_1,3716,9,7967,1,-0.97214,97.5689,8.05615,126.65,-0.300306
block_1,3717,9,7968,1,-0.981566,97.0115,8.09174,126.35,-0.300308
block_1,3718,9,7969,1,-1.24674,84.5672,8.62138,109.774,-0.365479
block_1,3719,9,7970,1,-1.25909,84.0841,8.65946,109.514,-0.365481
block_1,3720,9,7971,1,-1.55445,72.3825,9.0255,93.3401,-0.434745
block_1,3721,9,7972,1,-1.57001,71.9772,9.06571,93.1218,-0.434748
block_1,3722,9,7973,1,-1.9802,59.2418,9.4258,76.3932,-0.507485
block_1,3723,9,7974,1,-2.00045,58.9102,9.4678,76.2145,-0.507488
block_1,3724,9,7975,1,-1.58581,71.5702,9.10593,92.9026,-0.43475
block_1,3725,9,7976,1,-1.60185,71.1613,9.14615,92.6824,-0.434752
block_1,3726,9,7977,1,-2.02099,58.577,9.5098,76.0351,-0.507491
block_1,3727,9,7978,1,-2.04183,58.2424,9.5518,75.8549,-0.507493
block_1,3728,9,7979,1,-0.991142,96.4517,8.12732,126.048,-0.30031
block_1,3729,9,7980,1,-1.00087,95.8894,8.16291,125.745,-0.300311
block_1,3730,9,7981,1,-1.27163,83.5989,8.69754,109.252,-0.365483
block_1,3731,9,7982,1,-1.28437,83.1115,8.73562,108.99,-0.365484
block_1,3732,9,7983,1,-1.01075,95.3246,8.19849,125.441,-0.300313
block_1,3733,9,7984,1,-1.02079,94.7574,8.23408,125.136,-0.300315
block_1,3734,9,7985,1,-1.29731,82.622,8.7737,108.726,-0.365486
block_1,3735,9,7986,1,-1.31045,82.1303,8.81178,108.462,-0.365488
block_1,3736,9,7987,1,-1.61814,70.7506,9.18637,92.4612,-0.434755
block_1,3737,9,7988,1,-1.63468,70.3382,9.22659,92.2391,-0.434757
block_1,3738,9,7989,1,-2.06298,57.9063,9.5938,75.6739,-0.507496
block_1,3739,9,7990,1,-2.08444,57.5688,9.6358,75.4921,-0.507499
block_1,3740,9,7991,1,-1.65147,69.9239,9.26681,92.016,-0.434759
block_1,3741,9,7992,1,-1.66852,69.5078,9.30703,91.7919,-0.434762
block_1,3742,9,7993,1,-2.10622,57.2298,9.6778,75.3095,-0.507501
block_1,3743,9,7994,1,-2.12834,56.8893,9.71981,75.1261,-0.507504
block_1,3744,9,7995,1,-2.56158,46.1043,9.74613,59.4494,-0.583064
block_1,3745,9,7996,1,-2.58816,45.8463,9.78956,59.3104,-0.583067
block_1,3746,9,7997,1,-3.43512,32.9693,9.9865,42.5081,-0.660851
block_1,3747,9,7998,1,-3.47056,32.7848,10.031,42.4088,-0.660855
block_1,3748,9,7999,1,-2.6151,45.5871,9.83299,59.1708,-0.58307
block_1,3749,9,8000,1,-2.64242,45.3267,9.87641,59.0306,-0.583073
block_1,3750,9,8001,1,-3.50644,32.5996,10.0755,42.309,-0.660858
block_1,3751,9,8002,1,-3.54275,32.4135,10.12,42.2088,-0.660862
block_1,3752,9,8003,1,-4.94351,19.836,10.1469,25.5686,-0.740217
block_1,3753,9,8004,1,-4.99077,19.7252,10.1921,25.5089,-0.740221
block_1,3754,9,8005,1,-8.00564,6.70386,10.2273,8.63019,-0.820532
block_1,3755,9,8006,1,-8.05974,6.66664,10.2729,8.61014,-0.820536
block_1,3756,9,8007,1,-5.03847,19.6139,10.2373,25.449,-0.740225
block_1,3757,9,8008,1,-5.08659,19.5021,10.2825,25.3887,-0.740229
block_1,3758,9,8009,1,-8.114,6.62925,10.3185,8.58999,-0.82054
block_1,3759,9,8010,1,-8.16843,6.5917,10.364,8.56976,-0.820544
block_1,3760,9,8011,1,-2.67011,45.0652,9.91984,58.8898,-0.583076
block_1,3761,9,8012,1,-2.6982,44.8026,9.96327,58.7483,-0.583079
block_1,3762,9,8013,1,-3.57952,32.2266,10.1645,42.1081,-0.660865
block_1,3763,9,8014,1,-3.61673,32.0389,10.209,42.007,-0.660869
block_1,3764,9,8015,1,-2.72668,44.5388,10.0067,58.6062,-0.583082
block_1,3765,9,8016,1,-2.75556,44.2739,10.0501,58.4636,-0.583086
block_1,3766,9,8017,1,-3.65441,31.8504,10.2535,41.9055,-0.660872
block_1,3767,9,8018,1,-3.69255,31.661,10.298,41.8035,-0.660876
block_1,3768,9,8019,1,-5.13514,19.3898,10.3277,25.3282,-0.740233
block_1,3769,9,8020,1,-5.18413,19.277,10.373,25.2675,-0.740236
block_1,3770,9,8021,1,-8.22302,6.55398,10.4096,8.54943,-0.820548
block_1,3771,9,8022,1,-8.27778,6.5161,10.4552,8.52902,-0.820553
block_1,3772,9,8023,1,-5.23356,19.1637,10.4182,25.2065,-0.74024
block_1,3773,9,8024,1,-5.28342,19.0499,10.4634,25.1452,-0.740244
block_1,3774,9,8025,1,-8.33269,6.47805,10.5007,8.50852,-0.820557
block_1,3775,9,8026,1,-8.38777,6.43984,10.5463,8.48793,-0.820561
block_1,3776,9,8027,1,-1.031,94.1877,8.26967,124.829,-0.300316
block_1,3777,9,8028,1,-1.04137,93.6156,8.30525,124.521,-0.300318
block_1,3778,9,8029,1,-1.3238,81.6365,8.84987,108.196,-0.36549
block_1,3779,9,8030,1,-1.33737,81.1406,8.88795,107.929,-0.365492
block_1,3780,9,8031,1,-1.05191,93.041,8.34084,124.211,-0.30032
block_1,3781,9,8032,1,-1.06262,92.464,8.37643,123.901,-0.300321
block_1,3782,9,8033,1,-1.35116,80.6426,8.92603,107.66,-0.365494
block_1,3783,9,8034,1,-1.36517,80.1425,8.96411,107.391,-0.365497
block_1,3784,9,8035,1,-1.68584,69.09,9.34725,91.5668,-0.434764
block_1,3785,9,8036,1,-1.70343,68.6703,9.38747,91.3408,-0.434766
block_1,3786,9,8037,1,-2.15078,56.5473,9.76181,74.9419,-0.507507
block_1,3787,9,8038,1,-2.17356,56.2039,9.80381,74.757,-0.50751
block_1,3788,9,8039,1,-1.7213,68.2488,9.42769,91.1138,-0.434769
block_1,3789,9,8040,1,-1.73945,67.8255,9.46791,90.8859,-0.434771
block_1,3790,9,8041,1,-2.19669,55.8589,9.84582,74.5712,-0.507512
block_1,3791,9,8042,1,-2.22018,55.5125,9.88782,74.3847,-0.507515
block_1,3792,9,8043,1,-1.07352,91.8845,8.41202,123.589,-0.300323
block_1,3793,9,8044,1,-1.08459,91.3025,8.4476,123.275,-0.300325
block_1,3794,9,8045,1,-1.37941,79.6402,9.00219,107.12,-0.365499
block_1,3795,9,8046,1,-1.39388,79.1358,9.04028,106.849,-0.365501
block_1,3796,9,8047,1,-1.09585,90.7181,8.48319,122.96,-0.300326
block_1,3797,9,8048,1,-1.1073,90.1313,8.51878,122.644,-0.300328
block_1,3798,9,8049,1,-1.40859,78.6292,9.07836,106.576,-0.365503
block_1,3799,9,8050,1,-1.42355,78.1206,9.11644,106.302,-0.365505
block_1,3800,9,8051,1,-1.75789,67.4005,9.50813,90.6569,-0.434774
block_1,3801,9,8052,1,-1.77662,66.9736,9.54835,90.427,-0.434776
block_1,3802,9,8053,1,-2.24402,55.1647,9.92982,74.1973,-0.507518
block_1,3803,9,8054,1,-2.26824,54.8153,9.97183,74.0092,-0.507521
block_1,3804,9,8055,1,-1.79566,66.5449,9.58857,90.1962,-0.434778
block_1,3805,9,8056,1,-1.81501,66.1144,9.6288,89.9643,-0.434781
block_1,3806,9,8057,1,-2.29283,54.4645,10.0138,73.8202,-0.507524
block_1,3807,9,8058,1,-2.3178,54.1122,10.0558,73.6305,-0.507526
block_1,3808,9,8059,1,-2.78485,44.0078,10.0936,58.3203,-0.583089
block_1,3809,9,8060,1,-2.81455,43.7406,10.137,58.1763,-0.583092
block_1,3810,9,8061,1,-3.73117,31.4708,10.3425,41.701,-0.660879
block_1,3811,9,8062,1,-3.77026,31.2798,10.387,41.5982,-0.660883
block_1,3812,9,8063,1,-2.84468,43.4722,10.1804,58.0318,-0.583095
block_1,3813,9,8064,1,-2.87524,43.2027,10.2238,57.8866,-0.583098
block_1,3814,9,8065,1,-3.80985,31.088,10.4315,41.4949,-0.660886
block_1,3815,9,8066,1,-3.84992,30.8954,10.476,41.3911,-0.66089
block_1,3816,9,8067,1,-5.33373,18.9356,10.5086,25.0836,-0.740248
block_1,3817,9,8068,1,-5.38449,18.8208,10.5538,25.0218,-0.740252
block_1,3818,9,8069,1,-8.44301,6.40146,10.5919,8.46726,-0.820565
block_1,3819,9,8070,1,-8.49841,6.36292,10.6374,8.44649,-0.82057
block_1,3820,9,8071,1,-5.4357,18.7056,10.599,24.9597,-0.740256
block_1,3821,9,8072,1,-5.48736,18.5898,10.6442,24.8974,-0.74026
block_1,3822,9,8073,1,-8.55398,6.32421,10.683,8.42563,-0.820574
block_1,3823,9,8074,1,-8.6097,6.28534,10.7286,8.40469,-0.820578
block_1,3824,9,8075,1,-2.90623,42.9321,10.2673,57.7409,-0.583101
block_1,3825,9,8076,1,-2.93768,42.6603,10.3107,57.5945,-0.583104
block_1,3826,9,8077,1,-3.8905,30.7019,10.5205,41.2869,-0.660893
block_1,3827,9,8078,1,-3.93158,30.5077,10.565,41.1823,-0.660897
block_1,3828,9,8079,1,-2.96957,42.3873,10.3541,57.4475,-0.583108
block_1,3829,9,8080,1,-3.00194,42.1132,10.3976,57.2999,-0.583111
block_1,3830,9,8081,1,-3.97318,30.3126,10.6095,41.0772,-0.6609
block_1,3831,9,8082,1,-4.0153,30.1167,10.654,40.9717,-0.660904
block_1,3832,9,8083,1,-5.53949,18.4736,10.6894,24.8348,-0.740264
block_1,3833,9,8084,1,-5.59207,18.3569,10.7347,24.7719,-0.740268
block_1,3834,9,8085,1,-8.66558,6.2463,10.7742,8.38366,-0.820583
block_1,3835,9,8086,1,-8.72163,6.2071,10.8197,8.36253,-0.820587
block_1,3836,9,8087,1,-5.64511,18.2396,10.7799,24.7087,-0.740272
block_1,3837,9,8088,1,-5.69863,18.1219,10.8251,24.6453,-0.740276
block_1,3838,9,8089,1,-8.77783,6.16774,10.8653,8.34132,-0.820591
block_1,3839,9,8090,1,-8.83419,6.12821,10.9109,8.32002,-0.820596
block_1,3840,9,8091,1,-0.0103079,185.251,0.669062,252.979,-0.00213003
block_1,3841,9,8092,1,-0.0102833,184.028,0.671865,252.32,-0.00213004
block_1,3842,9,8093,1,-0.0400051,173.256,1.95456,236.616,-0.0118209
block_1,3843,9,8094,1,-0.0402717,172.112,1.96271,236,-0.011821
block_1,3844,9,8095,1,-0.0102591,182.801,0.674668,251.659,-0.00213005
block_1,3845,9,8096,1,-0.0102354,181.568,0.677471,250.995,-0.00213006
block_1,3846,9,8097,1,-0.0405439,170.964,1.97086,235.382,-0.0118211
block_1,3847,9,8098,1,-0.0408218,169.811,1.97901,234.761,-0.0118211
block_1,3848,9,8099,1,-0.0988859,161.272,3.1544,220.264,-0.0306535
block_1,3849,9,8100,1,-0.0997432,160.207,3.16753,219.69,-0.0306537
block_1,3850,9,8101,1,-0.18696,149.297,4.26856,203.921,-0.0579975
block_1,3851,9,8102,1,-0.188716,148.311,4.28633,203.39,-0.0579979
block_1,3852,9,8103,1,-0.100617,159.138,3.18067,219.115,-0.0306539
block_1,3853,9,8104,1,-0.101506,158.064,3.19381,218.536,-0.0306541
block_1,3854,9,8105,1,-0.190504,147.321,4.3041,202.857,-0.0579982
block_1,3855,9,8106,1,-0.192324,146.327,4.32187,202.322,-0.0579986
block_1,3856,9,8107,1,-0.0102122,180.33,0.680274,250.329,-0.00213008
block_1,3857,9,8108,1,-0.0101894,179.087,0.683077,249.659,-0.00213009
block_1,3858,9,8109,1,-0.0411057,168.653,1.98716,234.137,-0.0118212
block_1,3859,9,8110,1,-0.0413957,167.49,1.9953,233.511,-0.0118213
block_1,3860,9,8111,1,-0.0101672,177.84,0.685879,248.987,-0.0021301
block_1,3861,9,8112,1,-0.0101455,176.587,0.688682,248.313,-0.00213011
block_1,3862,9,8113,1,-0.0416919,166.323,2.00345,232.882,-0.0118214
block_1,3863,9,8114,1,-0.0419945,165.151,2.0116,232.251,-0.0118214
block_1,3864,9,8115,1,-0.102413,156.986,3.20694,217.956,-0.0306543
block_1,3865,9,8116,1,-0.103337,155.903,3.22008,217.373,-0.0306544
block_1,3866,9,8117,1,-0.194178,145.329,4.33964,201.784,-0.0579989
block_1,3867,9,8118,1,-0.196067,144.326,4.35741,201.244,-0.0579992
block_1,3868,9,8119,1,-0.104279,154.817,3.23322,216.788,-0.0306546
block_1,3869,9,8120,1,-0.10524,153.725,3.24636,216.2,-0.0306548
block_1,3870,9,8121,1,-0.197991,143.32,4.37518,200.702,-0.0579996
block_1,3871,9,8122,1,-0.199951,142.309,4.39295,200.158,-0.0579999
block_1,3872,9,8123,1,-0.304742,137.331,5.29706,187.588,-0.0932227
block_1,3873,9,8124,1,-0.30772,136.424,5.3191,187.099,-0.0932233
block_1,3874,9,8125,1,-0.453491,125.373,6.23989,171.262,-0.135699
block_1,3875,9,8126,1,-0.458038,124.545,6.26585,170.816,-0.1357
block_1,3876,9,8127,1,-0.310751,135.513,5.34115,186.608,-0.0932238
block_1,3877,9,8128,1,-0.313837,134.598,5.3632,186.116,-0.0932244
block_1,3878,9,8129,1,-0.462665,123.713,6.29182,170.368,-0.1357
block_1,3879,9,8130,1,-0.467376,122.878,6.31779,169.918,-0.135701
block_1,3880,9,8131,1,-0.635574,113.423,7.09705,154.944,-0.184796
block_1,3881,9,8132,1,-0.642077,112.674,7.12658,154.54,-0.184797
block_1,3882,9,8133,1,-0.855092,101.48,7.86854,138.632,-0.239883
block_1,3883,9,8134,1,-0.863996,100.809,7.90128,138.271,-0.239884
block_1,3884,9,8135,1,-0.648694,111.921,7.15611,154.135,-0.184798
block_1,3885,9,8136,1,-0.655428,111.165,7.18564,153.728,-0.184799
block_1,3886,9,8137,1,-0.873056,100.136,7.93402,137.909,-0.239885
block_1,3887,9,8138,1,-0.882274,99.4593,7.96676,137.544,-0.239887
block_1,3888,9,8139,1,-0.316979,133.68,5.38524,185.621,-0.0932249
block_1,3889,9,8140,1,-0.320178,132.758,5.40729,185.125,-0.0932254
block_1,3890,9,8141,1,-0.472171,122.04,6.34375,169.467,-0.135702
block_1,3891,9,8142,1,-0.477053,121.197,6.36972,169.013,-0.135703
block_1,3892,9,8143,1,-0.323437,131.832,5.42934,184.626,-0.093226
block_1,3893,9,8144,1,-0.326756,130.902,5.45139,184.125,-0.0932265
block_1,3894,9,8145,1,-0.482025,120.352,6.39569,168.558,-0.135704
block_1,3895,9,8146,1,-0.487088,119.503,6.42166,168.101,-0.135704
block_1,3896,9,8147,1,-0.662283,110.407,7.21517,153.319,-0.1848
block_1,3897,9,8148,1,-0.66926,109.645,7.2447,152.909,-0.184801
block_1,3898,9,8149,1,-0.891655,98.7804,7.9995,137.179,-0.239888
block_1,3899,9,8150,1,-0.901203,98.0986,8.03224,136.812,-0.239889
block_1,3900,9,8151,1,-0.676364,108.88,7.27424,152.497,-0.184802
block_1,3901,9,8152,1,-0.683598,108.112,7.30377,152.083,-0.184803
block_1,3902,9,8153,1,-0.910923,97.4141,8.06498,136.443,-0.239891
block_1,3903,9,8154,1,-0.920817,96.7268,8.09772,136.073,-0.239892
block_1,3904,9,8155,1,-0.0101244,175.329,0.691485,247.635,-0.00213013
block_1,3905,9,8156,1,-0.0101038,174.065,0.694287,246.955,-0.00213014
block_1,3906,9,8157,1,-0.0423038,163.974,2.01975,231.617,-0.0118215
block_1,3907,9,8158,1,-0.0426198,162.792,2.0279,230.981,-0.0118216
block_1,3908,9,8159,1,-0.0100839,172.797,0.69709,246.272,-0.00213015
block_1,3909,9,8160,1,-0.0100645,171.524,0.699892,245.586,-0.00213017
block_1,3910,9,8161,1,-0.0429428,161.606,2.03605,230.342,-0.0118216
block_1,3911,9,8162,1,-0.043273,160.415,2.04419,229.701,-0.0118217
block_1,3912,9,8163,1,-0.106219,152.629,3.25949,215.61,-0.030655
block_1,3913,9,8164,1,-0.107217,151.529,3.27263,215.017,-0.0306552
block_1,3914,9,8165,1,-0.201949,141.295,4.41072,199.612,-0.0580003
block_1,3915,9,8166,1,-0.203985,140.276,4.42849,199.063,-0.0580006
block_1,3916,9,8167,1,-0.108235,150.425,3.28577,214.422,-0.0306553
block_1,3917,9,8168,1,-0.109273,149.316,3.29891,213.825,-0.0306555
block_1,3918,9,8169,1,-0.206059,139.253,4.44626,198.512,-0.058001
block_1,3919,9,8170,1,-0.208175,138.226,4.46404,197.959,-0.0580013
block_1,3920,9,8171,1,-0.0100458,170.246,0.702695,244.898,-0.00213018
block_1,3921,9,8172,1,-0.0100278,168.962,0.705497,244.207,-0.00213019
block_1,3922,9,8173,1,-0.0436105,159.219,2.05234,229.057,-0.0118218
block_1,3923,9,8174,1,-0.0439556,158.018,2.06049,228.41,-0.0118218
block_1,3924,9,8175,1,-0.0100105,167.674,0.7083,243.513,-0.0021302
block_1,3925,9,8176,1,-0.00999395,166.38,0.711102,242.816,-0.00213022
block_1,3926,9,8177,1,-0.0443085,156.813,2.06864,227.761,-0.0118219
block_1,3927,9,8178,1,-0.0446695,155.603,2.07679,227.109,-0.011822
block_1,3928,9,8179,1,-0.110333,148.202,3.31205,213.225,-0.0306557
block_1,3929,9,8180,1,-0.111414,147.084,3.32518,212.623,-0.0306559
block_1,3930,9,8181,1,-0.210331,137.195,4.48181,197.404,-0.0580016
block_1,3931,9,8182,1,-0.21253,136.16,4.49958,196.847,-0.058002
block_1,3932,9,8183,1,-0.112517,145.962,3.33832,212.019,-0.0306561
block_1,3933,9,8184,1,-0.113642,144.835,3.35146,211.412,-0.0306562
block_1,3934,9,8185,1,-0.214773,135.121,4.51735,196.287,-0.0580023
block_1,3935,9,8186,1,-0.217061,134.078,4.53512,195.725,-0.0580027
block_1,3936,9,8187,1,-0.330137,129.969,5.47343,183.623,-0.0932271
block_1,3937,9,8188,1,-0.333582,129.031,5.49548,183.118,-0.0932276
block_1,3938,9,8189,1,-0.492245,118.651,6.44763,167.642,-0.135705
block_1,3939,9,8190,1,-0.497498,117.795,6.47359,167.181,-0.135706
block_1,3940,9,8191,1,-0.337092,128.09,5.51753,182.611,-0.0932282
block_1,3941,9,8192,1,-0.34067,127.145,5.53958,182.102,-0.0932287
block_1,3942,9,8193,1,-0.50285,116.936,6.49956,166.718,-0.135707
block_1,3943,9,8194,1,-0.508303,116.073,6.52553,166.253,-0.135707
block_1,3944,9,8195,1,-0.690965,107.34,7.3333,151.668,-0.184804
block_1,3945,9,8196,1,-0.698467,106.566,7.36283,151.251,-0.184805
block_1,3946,9,8197,1,-0.930892,96.0367,8.13046,135.701,-0.239894
block_1,3947,9,8198,1,-0.941152,95.3438,8.1632,135.328,-0.239895
block_1,3948,9,8199,1,-0.70611,105.789,7.39236,150.832,-0.184806
block_1,3949,9,8200,1,-0.713897,105.008,7.4219,150.412,-0.184807
block_1,3950,9,8201,1,-0.9516,94.6481,8.19594,134.953,-0.239896
block_1,3951,9,8202,1,-0.962243,93.9497,8.22868,134.577,-0.239898
block_1,3952,9,8203,1,-0.344316,126.197,5.56162,181.591,-0.0932293
block_1,3953,9,8204,1,-0.348034,125.245,5.58367,181.079,-0.0932298
block_1,3954,9,8205,1,-0.513861,115.207,6.5515,165.787,-0.135708
block_1,3955,9,8206,1,-0.519526,114.337,6.57747,165.319,-0.135709
block_1,3956,9,8207,1,-0.351824,124.288,5.60572,180.564,-0.0932304
block_1,3957,9,8208,1,-0.35569,123.329,5.62777,180.047,-0.0932309
block_1,3958,9,8209,1,-0.525301,113.464,6.60344,164.849,-0.13571
block_1,3959,9,8210,1,-0.531189,112.588,6.62941,164.377,-0.135711
block_1,3960,9,8211,1,-0.721831,104.224,7.45143,149.99,-0.184808
block_1,3961,9,8212,1,-0.729916,103.438,7.48096,149.566,-0.184809
block_1,3962,9,8213,1,-0.973085,93.2485,8.26142,134.2,-0.239899
block_1,3963,9,8214,1,-0.984132,92.5445,8.29416,133.821,-0.239901
block_1,3964,9,8215,1,-0.738157,102.648,7.5105,149.141,-0.184811
block_1,3965,9,8216,1,-0.746558,101.855,7.54003,148.714,-0.184812
block_1,3966,9,8217,1,-0.995389,91.8377,8.3269,133.44,-0.239902
block_1,3967,9,8218,1,-1.00686,91.1281,8.35964,133.058,-0.239903
block_1,3968,9,8219,1,-1.11894,89.542,8.55437,122.327,-0.30033
block_1,3969,9,8220,1,-1.13079,88.9502,8.58996,122.008,-0.300331
block_1,3970,9,8221,1,-1.43876,77.6098,9.15453,106.027,-0.365507
block_1,3971,9,8222,1,-1.45422,77.0968,9.19261,105.751,-0.365509
block_1,3972,9,8223,1,-1.14283,88.356,8.62555,121.688,-0.300333
block_1,3973,9,8224,1,-1.15509,87.7593,8.66114,121.367,-0.300335
block_1,3974,9,8225,1,-1.46994,76.5818,9.2307,105.473,-0.365511
block_1,3975,9,8226,1,-1.48594,76.0646,9.26878,105.195,-0.365513
block_1,3976,9,8227,1,-1.83467,65.6822,9.66902,89.7315,-0.434783
block_1,3977,9,8228,1,-1.85466,65.2481,9.70924,89.4977,-0.434786
block_1,3978,9,8229,1,-2.34316,53.7585,10.0978,73.44,-0.507529
block_1,3979,9,8230,1,-2.36892,53.4032,10.1398,73.2486,-0.507532
block_1,3980,9,8231,1,-1.87498,64.8122,9.74947,89.263,-0.434788
block_1,3981,9,8232,1,-1.89563,64.3745,9.78969,89.0273,-0.434791
block_1,3982,9,8233,1,-2.3951,53.0465,10.1819,73.0565,-0.507535
block_1,3983,9,8234,1,-2.42168,52.6883,10.2239,72.8636,-0.507538
block_1,3984,9,8235,1,-1.16756,87.1602,8.69673,121.044,-0.300337
block_1,3985,9,8236,1,-1.18025,86.5586,8.73232,120.72,-0.300338
block_1,3986,9,8237,1,-1.5022,75.5453,9.30687,104.915,-0.365515
block_1,3987,9,8238,1,-1.51875,75.0239,9.34495,104.634,-0.365517
block_1,3988,9,8239,1,-1.19316,85.9545,8.76791,120.395,-0.30034
block_1,3989,9,8240,1,-1.2063,85.348,8.8035,120.068,-0.300342
block_1,3990,9,8241,1,-1.53559,74.5003,9.38304,104.352,-0.365519
block_1,3991,9,8242,1,-1.55272,73.9746,9.42113,104.069,-0.365521
block_1,3992,9,8243,1,-1.91663,63.935,9.82991,88.7906,-0.434793
block_1,3993,9,8244,1,-1.93798,63.4938,9.87014,88.5529,-0.434796
block_1,3994,9,8245,1,-2.4487,52.3287,10.2659,72.6699,-0.507541
block_1,3995,9,8246,1,-2.47614,51.9675,10.3079,72.4754,-0.507543
block_1,3996,9,8247,1,-1.95969,63.0507,9.91036,88.3143,-0.434798
block_1,3997,9,8248,1,-1.98177,62.6058,9.95059,88.0747,-0.4348
block_1,3998,9,8249,1,-2.50403,51.6049,10.3499,72.2802,-0.507546
block_1,3999,9,8250,1,-2.53238,51.2409,10.3919,72.0841,-0.507549
block_1,4000,9,8251,1,-3.03477,41.838,10.441,57.1516,-0.583114
block_1,4001,9,8252,1,-3.06808,41.5616,10.4844,57.0028,-0.583117
block_1,4002,9,8253,1,-4.05795,29.9199,10.6985,40.8657,-0.660908
block_1,4003,9,8254,1,-4.10114,29.7224,10.743,40.7594,-0.660911
block_1,4004,9,8255,1,-3.10189,41.284,10.5279,56.8533,-0.583121
block_1,4005,9,8256,1,-3.13619,41.0053,10.5713,56.7032,-0.583124
block_1,4006,9,8257,1,-4.14488,29.524,10.7875,40.6525,-0.660915
block_1,4007,9,8258,1,-4.18916,29.3248,10.832,40.5452,-0.660919
block_1,4008,9,8259,1,-5.75261,18.0037,10.8703,24.5817,-0.74028
block_1,4009,9,8260,1,-5.80707,17.885,10.9155,24.5177,-0.740284
block_1,4010,9,8261,1,-8.89072,6.08852,10.9565,8.29864,-0.8206
block_1,4011,9,8262,1,-8.9474,6.04866,11.002,8.27716,-0.820605
block_1,4012,9,8263,1,-5.86201,17.7658,10.9607,24.4535,-0.740288
block_1,4013,9,8264,1,-5.91742,17.6461,11.0059,24.3891,-0.740292
block_1,4014,9,8265,1,-9.00424,6.00863,11.0476,8.25559,-0.820609
block_1,4015,9,8266,1,-9.06124,5.96844,11.0932,8.23394,-0.820614
block_1,4016,9,8267,1,-3.171,40.7255,10.6147,56.5525,-0.583127
block_1,4017,9,8268,1,-3.20633,40.4445,10.6582,56.4012,-0.58313
block_1,4018,9,8269,1,-4.23401,29.1248,10.8765,40.4375,-0.660922
block_1,4019,9,8270,1,-4.27943,28.924,10.921,40.3294,-0.660926
block_1,4020,9,8271,1,-3.24218,40.1624,10.7016,56.2492,-0.583134
block_1,4021,9,8272,1,-3.27857,39.8791,10.745,56.0967,-0.583137
block_1,4022,9,8273,1,-4.32542,28.7224,10.9655,40.2208,-0.66093
block_1,4023,9,8274,1,-4.37201,28.5199,11.01,40.1117,-0.660933
block_1,4024,9,8275,1,-5.97332,17.5259,11.0512,24.3243,-0.740296
block_1,4025,9,8276,1,-6.02971,17.4053,11.0964,24.2593,-0.7403
block_1,4026,9,8277,1,-9.1184,5.92809,11.1387,8.2122,-0.820618
block_1,4027,9,8278,1,-9.17572,5.88757,11.1843,8.19036,-0.820622
block_1,4028,9,8279,1,-6.08659,17.2841,11.1416,24.1941,-0.740304
block_1,4029,9,8280,1,-6.14396,17.1624,11.1868,24.1285,-0.740308
block_1,4030,9,8281,1,-9.23319,5.84689,11.2299,8.16844,-0.820627
block_1,4031,9,8282,1,-9.29083,5.80604,11.2755,8.14643,-0.820631
block_1,4032,9,8283,1,-1.21968,84.7391,8.83909,119.74,-0.300343
block_1,4033,9,8284,1,-1.23331,84.1277,8.87469,119.411,-0.300345
block_1,4034,9,8285,1,-1.57015,73.4468,9.45921,103.785,-0.365523
block_1,4035,9,8286,1,-1.58789,72.9168,9.4973,103.5,-0.365525
block_1,4036,9,8287,1,-1.24717,83.5138,8.91028,119.081,-0.300347
block_1,4037,9,8288,1,-1.2613,82.8975,8.94587,118.749,-0.300349
block_1,4038,9,8289,1,-1.60594,72.3847,9.53539,103.213,-0.365528
block_1,4039,9,8290,1,-1.62433,71.8505,9.57348,102.925,-0.36553
block_1,4040,9,8291,1,-2.00423,62.1591,9.99081,87.8341,-0.434803
block_1,4041,9,8292,1,-2.02708,61.7106,10.031,87.5926,-0.434805
block_1,4042,9,8293,1,-2.56118,50.8753,10.4339,71.8872,-0.507552
block_1,4043,9,8294,1,-2.59046,50.5083,10.4759,71.6896,-0.507555
block_1,4044,9,8295,1,-2.05032,61.2603,10.0713,87.3501,-0.434808
block_1,4045,9,8296,1,-2.07396,60.8082,10.1115,87.1066,-0.43481
block_1,4046,9,8297,1,-2.62023,50.1398,10.5179,71.4911,-0.507558
block_1,4047,9,8298,1,-2.65049,49.7698,10.5599,71.2918,-0.507561
block_1,4048,9,8299,1,-1.27568,82.2787,8.98146,118.415,-0.30035
block_1,4049,9,8300,1,-1.29033,81.6574,9.01706,118.081,-0.300352
block_1,4050,9,8301,1,-1.64304,71.3142,9.61156,102.636,-0.365532
block_1,4051,9,8302,1,-1.66209,70.7757,9.64965,102.347,-0.365534
block_1,4052,9,8303,1,-1.30526,81.0337,9.05265,117.745,-0.300354
block_1,4053,9,8304,1,-1.32047,80.4076,9.08824,117.408,-0.300356
block_1,4054,9,8305,1,-1.6815,70.2351,9.68774,102.055,-0.365536
block_1,4055,9,8306,1,-1.70126,69.6924,9.72583,101.763,-0.365538
block_1,4056,9,8307,1,-2.09803,60.3543,10.1517,86.8622,-0.434813
block_1,4057,9,8308,1,-2.12251,59.8986,10.1919,86.6168,-0.434815
block_1,4058,9,8309,1,-2.68125,49.3984,10.6019,71.0918,-0.507563
block_1,4059,9,8310,1,-2.71253,49.0254,10.6439,70.891,-0.507566
block_1,4060,9,8311,1,-2.14743,59.4411,10.2322,86.3704,-0.434818
block_1,4061,9,8312,1,-2.1728,58.9818,10.2724,86.1231,-0.43482
block_1,4062,9,8313,1,-2.74434,48.651,10.686,70.6893,-0.507569
block_1,4063,9,8314,1,-2.77668,48.2752,10.728,70.4869,-0.507572
block_1,4064,9,8315,1,-3.31551,39.5947,10.7885,55.9435,-0.58314
block_1,4065,9,8316,1,-3.35301,39.3092,10.8319,55.7897,-0.583143
block_1,4066,9,8317,1,-4.41918,28.3166,11.0545,40.0022,-0.660937
block_1,4067,9,8318,1,-4.46696,28.1125,11.099,39.8923,-0.660941
block_1,4068,9,8319,1,-3.39108,39.0224,10.8753,55.6353,-0.583147
block_1,4069,9,8320,1,-3.42972,38.7346,10.9188,55.4802,-0.58315
block_1,4070,9,8321,1,-4.51535,27.9076,11.1435,39.7819,-0.660944
block_1,4071,9,8322,1,-4.56436,27.7019,11.188,39.6711,-0.660948
block_1,4072,9,8323,1,-6.20183,17.0403,11.232,24.0627,-0.740312
block_1,4073,9,8324,1,-6.26021,16.9177,11.2773,23.9967,-0.740316
block_1,4074,9,8325,1,-9.34862,5.76503,11.321,8.12434,-0.820636
block_1,4075,9,8326,1,-9.40656,5.72386,11.3666,8.10215,-0.82064
block_1,4076,9,8327,1,-6.31908,16.7945,11.3225,23.9304,-0.740321
block_1,4077,9,8328,1,-6.37847,16.6709,11.3677,23.8638,-0.740325
block_1,4078,9,8329,1,-9.46467,5.68252,11.4122,8.07987,-0.820645
block_1,4079,9,8330,1,-9.52293,5.64101,11.4578,8.05751,-0.820649
block_1,4080,9,8331,1,-3.46896,38.4456,10.9622,55.3246,-0.583153
block_1,4081,9,8332,1,-3.5088,38.1554,11.0056,55.1683,-0.583156
block_1,4082,9,8333,1,-4.614,27.4953,11.2325,39.5599,-0.660952
block_1,4083,9,8334,1,-4.66428,27.2879,11.277,39.4482,-0.660955
block_1,4084,9,8335,1,-3.54925,37.8641,11.0491,55.0115,-0.58316
block_1,4085,9,8336,1,-3.59033,37.5717,11.0925,54.854,-0.583163
block_1,4086,9,8337,1,-4.7152,27.0797,11.3215,39.3361,-0.660959
block_1,4087,9,8338,1,-4.76678,26.8707,11.3661,39.2235,-0.660963
block_1,4088,9,8339,1,-6.43836,16.5468,11.4129,23.7969,-0.740329
block_1,4089,9,8340,1,-6.49877,16.4222,11.4581,23.7298,-0.740333
block_1,4090,9,8341,1,-9.58135,5.59934,11.5034,8.03506,-0.820654
block_1,4091,9,8342,1,-9.63993,5.55751,11.5489,8.01252,-0.820659
block_1,4092,9,8343,1,-6.5597,16.2971,11.5034,23.6624,-0.740337
block_1,4093,9,8344,1,-6.62114,16.1715,11.5486,23.5948,-0.740341
block_1,4094,9,8345,1,-9.69866,5.51551,11.5945,7.98989,-0.820663
block_1,4095,9,8346,1,-9.75754,5.47335,11.6401,7.96717,-0.820668
block_1,4096,9,8347,1,-0.00997812,165.082,0.713904,242.117,-0.00213023
block_1,4097,9,8348,1,-0.00996308,163.778,0.716706,241.415,-0.00213024
block_1,4098,9,8349,1,-0.0450387,154.388,2.08494,226.455,-0.0118221
block_1,4099,9,8350,1,-0.0454164,153.168,2.09308,225.798,-0.0118221
block_1,4100,9,8351,1,-0.00994886,162.469,0.719509,240.71,-0.00213025
block_1,4101,9,8352,1,-0.00993548,161.155,0.722311,240.002,-0.00213027
block_1,4102,9,8353,1,-0.0458028,151.944,2.10123,225.139,-0.0118222
block_1,4103,9,8354,1,-0.0461983,150.715,2.10938,224.477,-0.0118223
block_1,4104,9,8355,1,-0.114791,143.704,3.3646,210.803,-0.0306564
block_1,4105,9,8356,1,-0.115964,142.569,3.37774,210.192,-0.0306566
block_1,4106,9,8357,1,-0.219395,133.03,4.55289,195.161,-0.058003
block_1,4107,9,8358,1,-0.221777,131.979,4.57066,194.595,-0.0580033
block_1,4108,9,8359,1,-0.117162,141.429,3.39088,209.578,-0.0306568
block_1,4109,9,8360,1,-0.118386,140.284,3.40401,208.961,-0.030657
block_1,4110,9,8361,1,-0.224207,130.923,4.58844,194.026,-0.0580037
block_1,4111,9,8362,1,-0.226688,129.863,4.60621,193.456,-0.058004
block_1,4112,9,8363,1,-0.00992299,159.836,0.725113,239.292,-0.00213028
block_1,4113,9,8364,1,-0.00991141,158.512,0.727915,238.579,-0.00213029
block_1,4114,9,8365,1,-0.0466031,149.481,2.11753,223.812,-0.0118223
block_1,4115,9,8366,1,-0.0470175,148.242,2.12568,223.145,-0.0118224
block_1,4116,9,8367,1,-0.00990077,157.183,0.730717,237.863,-0.0021303
block_1,4117,9,8368,1,-0.00989113,155.849,0.733519,237.145,-0.00213032
block_1,4118,9,8369,1,-0.0474417,146.999,2.13383,222.476,-0.0118225
block_1,4119,9,8370,1,-0.0478761,145.751,2.14197,221.804,-0.0118225
block_1,4120,9,8371,1,-0.119635,139.135,3.41715,208.343,-0.0306571
block_1,4121,9,8372,1,-0.120912,137.982,3.43029,207.722,-0.0306573
block_1,4122,9,8373,1,-0.229221,128.8,4.62398,192.883,-0.0580043
block_1,4123,9,8374,1,-0.231807,127.732,4.64175,192.308,-0.0580047
block_1,4124,9,8375,1,-0.122216,136.825,3.44343,207.098,-0.0306575
block_1,4125,9,8376,1,-0.123549,135.662,3.45657,206.473,-0.0306577
block_1,4126,9,8377,1,-0.234449,126.66,4.65953,191.731,-0.058005
block_1,4127,9,8378,1,-0.237146,125.584,4.6773,191.151,-0.0580054
block_1,4128,9,8379,1,-0.359633,122.365,5.64982,179.528,-0.0932314
block_1,4129,9,8380,1,-0.363654,121.398,5.67187,179.007,-0.093232
block_1,4130,9,8381,1,-0.537193,111.708,6.65538,163.903,-0.135711
block_1,4131,9,8382,1,-0.543317,110.825,6.68135,163.427,-0.135712
block_1,4132,9,8383,1,-0.367758,120.426,5.69392,178.484,-0.0932325
block_1,4133,9,8384,1,-0.371945,119.452,5.71597,177.959,-0.0932331
block_1,4134,9,8385,1,-0.549564,109.938,6.70732,162.949,-0.135713
block_1,4135,9,8386,1,-0.555937,109.048,6.73329,162.47,-0.135714
block_1,4136,9,8387,1,-0.755123,101.059,7.56957,148.285,-0.184813
block_1,4137,9,8388,1,-0.763857,100.259,7.5991,147.855,-0.184814
block_1,4138,9,8389,1,-1.01856,90.4157,8.39239,132.674,-0.239905
block_1,4139,9,8390,1,-1.03048,89.7006,8.42513,132.289,-0.239906
block_1,4140,9,8391,1,-0.772764,99.457,7.62863,147.423,-0.184815
block_1,4141,9,8392,1,-0.78185,98.6515,7.65817,146.989,-0.184816
block_1,4142,9,8393,1,-1.04264,88.9827,8.45787,131.902,-0.239908
block_1,4143,9,8394,1,-1.05503,88.262,8.49061,131.514,-0.239909
block_1,4144,9,8395,1,-0.376219,118.473,5.73802,177.432,-0.0932336
block_1,4145,9,8396,1,-0.380581,117.49,5.76007,176.903,-0.0932342
block_1,4146,9,8397,1,-0.56244,108.154,6.75926,161.989,-0.135715
block_1,4147,9,8398,1,-0.569078,107.257,6.78523,161.506,-0.135715
block_1,4148,9,8399,1,-0.385036,116.504,5.78212,176.372,-0.0932347
block_1,4149,9,8400,1,-0.389584,115.514,5.80417,175.839,-0.0932353
block_1,4150,9,8401,1,-0.575853,106.357,6.8112,161.021,-0.135716
block_1,4151,9,8402,1,-0.58277,105.453,6.83717,160.534,-0.135717
block_1,4152,9,8403,1,-0.79112,97.843,7.6877,146.553,-0.184817
block_1,4153,9,8404,1,-0.800579,97.0313,7.71724,146.116,-0.184818
block_1,4154,9,8405,1,-1.06768,87.5385,8.52336,131.125,-0.23991
block_1,4155,9,8406,1,-1.08058,86.8122,8.5561,130.734,-0.239912
block_1,4156,9,8407,1,-0.810232,96.2165,7.74678,145.677,-0.184819
block_1,4157,9,8408,1,-0.820085,95.3986,7.77631,145.237,-0.18482
block_1,4158,9,8409,1,-1.09374,86.0831,8.58884,130.341,-0.239913
block_1,4159,9,8410,1,-1.10717,85.3513,8.62159,129.947,-0.239915
block_1,4160,9,8411,1,-0.00988251,154.51,0.736321,236.424,-0.00213033
block_1,4161,9,8412,1,-0.00987496,153.165,0.739123,235.7,-0.00213034
block_1,4162,9,8413,1,-0.0483211,144.498,2.15012,221.129,-0.0118226
block_1,4163,9,8414,1,-0.0487769,143.24,2.15827,220.452,-0.0118227
block_1,4164,9,8415,1,-0.00986851,151.816,0.741925,234.973,-0.00213036
block_1,4165,9,8416,1,-0.00986322,150.462,0.744727,234.244,-0.00213037
block_1,4166,9,8417,1,-0.0492439,141.978,2.16642,219.772,-0.0118228
block_1,4167,9,8418,1,-0.0497224,140.711,2.17457,219.09,-0.0118228
block_1,4168,9,8419,1,-0.124912,134.496,3.46971,205.844,-0.0306579
block_1,4169,9,8420,1,-0.126305,133.325,3.48285,205.214,-0.030658
block_1,4170,9,8421,1,-0.239903,124.504,4.69507,190.569,-0.0580057
block_1,4171,9,8422,1,-0.242719,123.42,4.71284,189.986,-0.0580061
block_1,4172,9,8423,1,-0.12773,132.15,3.49598,204.581,-0.0306582
block_1,4173,9,8424,1,-0.129187,130.97,3.50912,203.946,-0.0306584
block_1,4174,9,8425,1,-0.245598,122.331,4.73062,189.4,-0.0580065
block_1,4175,9,8426,1,-0.248541,121.239,4.74839,188.811,-0.0580068
block_1,4176,9,8427,1,-0.00985913,149.102,0.747528,233.512,-0.00213038
block_1,4177,9,8428,1,-0.00985628,147.737,0.75033,232.777,-0.0021304
block_1,4178,9,8429,1,-0.0502129,139.439,2.18272,218.405,-0.0118229
block_1,4179,9,8430,1,-0.0507157,138.162,2.19087,217.717,-0.011823
block_1,4180,9,8431,1,-0.00985472,146.368,0.753132,232.039,-0.00213042
block_1,4181,9,8432,1,-0.00985452,144.993,0.755934,231.299,-0.00213043
block_1,4182,9,8433,1,-0.0512313,136.881,2.19902,217.027,-0.0118231
block_1,4183,9,8434,1,-0.05176,135.595,2.20716,216.335,-0.0118232
block_1,4184,9,8435,1,-0.130678,129.786,3.52226,203.308,-0.0306587
block_1,4185,9,8436,1,-0.132204,128.597,3.5354,202.668,-0.0306589
block_1,4186,9,8437,1,-0.25155,120.142,4.76616,188.221,-0.0580072
block_1,4187,9,8438,1,-0.254627,119.042,4.78394,187.628,-0.0580077
block_1,4188,9,8439,1,-0.133765,127.404,3.54854,202.025,-0.0306591
block_1,4189,9,8440,1,-0.135363,126.207,3.56168,201.381,-0.0306594
block_1,4190,9,8441,1,-0.257775,117.937,4.80171,187.033,-0.0580081
block_1,4191,9,8442,1,-0.260995,116.828,4.81948,186.436,-0.0580086
block_1,4192,9,8443,1,-0.39423,114.52,5.82622,175.303,-0.0932359
block_1,4193,9,8444,1,-0.398976,113.523,5.84827,174.766,-0.0932364
block_1,4194,9,8445,1,-0.589834,104.545,6.86314,160.045,-0.135718
block_1,4195,9,8446,1,-0.597048,103.635,6.88911,159.555,-0.135719
block_1,4196,9,8447,1,-0.403825,112.522,5.87032,174.227,-0.093237
block_1,4197,9,8448,1,-0.408781,111.517,5.89237,173.686,-0.0932377
block_1,4198,9,8449,1,-0.604418,102.72,6.91508,159.063,-0.13572
block_1,4199,9,8450,1,-0.611948,101.803,6.94106,158.568,-0.13572
block_1,4200,9,8451,1,-0.830145,94.5776,7.80585,144.795,-0.184821
block_1,4201,9,8452,1,-0.840417,93.7535,7.83538,144.351,-0.184823
block_1,4202,9,8453,1,-1.12088,84.6167,8.65433,129.551,-0.239916
block_1,4203,9,8454,1,-1.13487,83.8792,8.68708,129.154,-0.239918
block_1,4204,9,8455,1,-0.850908,92.9263,7.86492,143.906,-0.184824
block_1,4205,9,8456,1,-0.861625,92.096,7.89446,143.459,-0.184825
block_1,4206,9,8457,1,-1.14916,83.139,8.71982,128.755,-0.239919
block_1,4207,9,8458,1,-1.16375,82.3961,8.75257,128.355,-0.239921
block_1,4208,9,8459,1,-0.413847,110.508,5.91442,173.142,-0.0932383
block_1,4209,9,8460,1,-0.419027,109.495,5.93647,172.597,-0.093239
block_1,4210,9,8461,1,-0.619644,100.881,6.96703,158.072,-0.135721
block_1,4211,9,8462,1,-0.62751,99.9569,6.993,157.574,-0.135722
block_1,4212,9,8463,1,-0.424323,108.479,5.95852,172.05,-0.0932397
block_1,4213,9,8464,1,-0.429741,107.459,5.98057,171.501,-0.0932405
block_1,4214,9,8465,1,-0.635553,99.0289,7.01897,157.075,-0.135724
block_1,4215,9,8466,1,-0.643777,98.0974,7.04495,156.573,-0.135725
block_1,4216,9,8467,1,-0.872574,91.2625,7.92399,143.01,-0.184826
block_1,4217,9,8468,1,-0.883764,90.426,7.95353,142.559,-0.184828
block_1,4218,9,8469,1,-1.17866,81.6503,8.78531,127.954,-0.239922
block_1,4219,9,8470,1,-1.19388,80.9018,8.81806,127.551,-0.239924
block_1,4220,9,8471,1,-0.895201,89.5863,7.98307,142.107,-0.184829
block_1,4221,9,8472,1,-0.906894,88.7435,8.01261,141.653,-0.184831
block_1,4222,9,8473,1,-1.20944,80.1504,8.85081,127.146,-0.239926
block_1,4223,9,8474,1,-1.22534,79.3963,8.88355,126.74,-0.239928
block_1,4224,9,8475,1,-1.33597,79.779,9.12384,117.069,-0.300357
block_1,4225,9,8476,1,-1.35176,79.1479,9.15943,116.729,-0.300359
block_1,4226,9,8477,1,-1.72139,69.1476,9.76392,101.47,-0.36554
block_1,4227,9,8478,1,-1.7419,68.6006,9.80201,101.175,-0.365542
block_1,4228,9,8479,1,-1.36786,78.5144,9.19503,116.388,-0.300361
block_1,4229,9,8480,1,-1.38428,77.8784,9.23062,116.046,-0.300363
block_1,4230,9,8481,1,-1.7628,68.0515,9.8401,100.879,-0.365544
block_1,4231,9,8482,1,-1.78409,67.5002,9.87819,100.583,-0.365546
block_1,4232,9,8483,1,-2.19863,58.5207,10.3126,85.8747,-0.434823
block_1,4233,9,8484,1,-2.22492,58.0578,10.3529,85.6254,-0.434825
block_1,4234,9,8485,1,-2.80958,47.8978,10.77,70.2837,-0.507575
block_1,4235,9,8486,1,-2.84305,47.519,10.812,70.0797,-0.507578
block_1,4236,9,8487,1,-2.2517,57.5931,10.3931,85.3752,-0.434828
block_1,4237,9,8488,1,-2.27896,57.1266,10.4333,85.124,-0.43483
block_1,4238,9,8489,1,-2.87709,47.1387,10.854,69.8749,-0.507581
block_1,4239,9,8490,1,-2.91173,46.757,10.896,69.6693,-0.507584
block_1,4240,9,8491,1,-1.40101,77.24,9.26622,115.702,-0.300364
block_1,4241,9,8492,1,-1.41808,76.5991,9.30181,115.357,-0.300366
block_1,4242,9,8493,1,-1.8058,66.9469,9.91628,100.285,-0.365549
block_1,4243,9,8494,1,-1.82792,66.3914,9.95437,99.9854,-0.365551
block_1,4244,9,8495,1,-1.43549,75.9558,9.33741,115.01,-0.300368
block_1,4245,9,8496,1,-1.45325,75.31,9.373,114.663,-0.30037
block_1,4246,9,8497,1,-1.85047,65.8337,9.99246,99.6851,-0.365553
block_1,4247,9,8498,1,-1.87347,65.274,10.0306,99.3836,-0.365555
block_1,4248,9,8499,1,-2.30673,56.6583,10.4736,84.8718,-0.434833
block_1,4249,9,8500,1,-2.33502,56.1882,10.5138,84.6186,-0.434835
block_1,4250,9,8501,1,-2.94696,46.3737,10.938,69.4629,-0.507587
block_1,4251,9,8502,1,-2.98282,45.989,10.98,69.2557,-0.50759
block_1,4252,9,8503,1,-2.36384,55.7163,10.554,84.3645,-0.434838
block_1,4253,9,8504,1,-2.3932,55.2426,10.5942,84.1093,-0.434841
block_1,4254,9,8505,1,-3.01931,45.6028,11.0221,69.0477,-0.507593
block_1,4255,9,8506,1,-3.05645,45.2151,11.0641,68.8389,-0.507596
block_1,4256,9,8507,1,-3.63204,37.2781,11.136,54.6958,-0.583166
block_1,4257,9,8508,1,-3.67441,36.9834,11.1794,54.5371,-0.58317
block_1,4258,9,8509,1,-4.81903,26.6609,11.4106,39.1105,-0.660967
block_1,4259,9,8510,1,-4.87196,26.4502,11.4551,38.997,-0.66097
block_1,4260,9,8511,1,-3.71744,36.6875,11.2228,54.3778,-0.583173
block_1,4261,9,8512,1,-3.76115,36.3905,11.2663,54.2178,-0.583176
block_1,4262,9,8513,1,-4.92557,26.2387,11.4996,38.8831,-0.660974
block_1,4263,9,8514,1,-4.97987,26.0264,11.5441,38.7688,-0.660978
block_1,4264,9,8515,1,-6.68312,16.0454,11.5938,23.5269,-0.740345
block_1,4265,9,8516,1,-6.74562,15.9188,11.639,23.4587,-0.74035
block_1,4266,9,8517,1,-9.81659,5.43102,11.6857,7.94436,-0.820672
block_1,4267,9,8518,1,-9.87579,5.38852,11.7312,7.92146,-0.820677
block_1,4268,9,8519,1,-6.80865,15.7918,11.6842,23.3903,-0.740354
block_1,4269,9,8520,1,-6.87222,15.6642,11.7295,23.3216,-0.740358
block_1,4270,9,8521,1,-9.93514,5.34587,11.7768,7.89848,-0.820681
block_1,4271,9,8522,1,-9.99465,5.30305,11.8224,7.8754,-0.820686
block_1,4272,9,8523,1,-3.80555,36.0923,11.3097,54.0572,-0.58318
block_1,4273,9,8524,1,-3.85065,35.793,11.3531,53.896,-0.583183
block_1,4274,9,8525,1,-5.03489,25.8133,11.5886,38.654,-0.660982
block_1,4275,9,8526,1,-5.09061,25.5994,11.6331,38.5388,-0.660986
block_1,4276,9,8527,1,-3.89647,35.4925,11.3966,53.7342,-0.583187
block_1,4277,9,8528,1,-3.94302,35.1909,11.44,53.5717,-0.58319
block_1,4278,9,8529,1,-5.14707,25.3847,11.6776,38.4231,-0.660989
block_1,4279,9,8530,1,-5.20426,25.1691,11.7221,38.307,-0.660993
block_1,4280,9,8531,1,-6.93632,15.5362,11.7747,23.2526,-0.740362
block_1,4281,9,8532,1,-7.00097,15.4076,11.8199,23.1834,-0.740366
block_1,4282,9,8533,1,-10.0543,5.26006,11.868,7.85224,-0.820691
block_1,4283,9,8534,1,-10.1141,5.21691,11.9136,7.82899,-0.820695
block_1,4284,9,8535,1,-7.06616,15.2786,11.8651,23.1139,-0.740371
block_1,4285,9,8536,1,-7.13189,15.1491,11.9104,23.0441,-0.740375
block_1,4286,9,8537,1,-10.1741,5.17359,11.9592,7.80565,-0.8207
block_1,4287,9,8538,1,-10.2342,5.13011,12.0047,7.78222,-0.820705
block_1,4288,9,8539,1,-1.47137,74.6617,9.4086,114.313,-0.300372
block_1,4289,9,8540,1,-1.48986,74.011,9.4442,113.963,-0.300373
block_1,4290,9,8541,1,-1.89692,64.7121,10.0686,99.0811,-0.365557
block_1,4291,9,8542,1,-1.92084,64.1481,10.1067,98.7773,-0.36556
block_1,4292,9,8543,1,-1.50873,73.3578,9.47979,113.611,-0.300375
block_1,4293,9,8544,1,-1.528,72.7022,9.51539,113.258,-0.300377
block_1,4294,9,8545,1,-1.94523,63.582,10.1448,98.4724,-0.365562
block_1,4295,9,8546,1,-1.97013,63.0137,10.1829,98.1664,-0.365564
block_1,4296,9,8547,1,-2.42312,54.7671,10.6345,83.8533,-0.434843
block_1,4297,9,8548,1,-2.45361,54.2898,10.6747,83.5962,-0.434846
block_1,4298,9,8549,1,-3.09426,44.826,11.1061,68.6294,-0.507599
block_1,4299,9,8550,1,-3.13274,44.4354,11.1481,68.419,-0.507602
block_1,4300,9,8551,1,-2.4847,53.8107,10.7149,83.3382,-0.434849
block_1,4301,9,8552,1,-2.51638,53.3298,10.7552,83.0792,-0.434852
block_1,4302,9,8553,1,-3.17192,44.0433,11.1901,68.2079,-0.507605
block_1,4303,9,8554,1,-3.21181,43.6498,11.2321,67.9959,-0.507609
block_1,4304,9,8555,1,-1.54766,72.0441,9.55099,112.904,-0.300379
block_1,4305,9,8556,1,-1.56775,71.3836,9.58659,112.548,-0.300382
block_1,4306,9,8557,1,-1.99553,62.4433,10.221,97.8592,-0.365567
block_1,4307,9,8558,1,-2.02145,61.8708,10.2591,97.5509,-0.36557
block_1,4308,9,8559,1,-1.58826,70.7206,9.62219,112.191,-0.300384
block_1,4309,9,8560,1,-1.60922,70.0552,9.65779,111.833,-0.300387
block_1,4310,9,8561,1,-2.04791,61.2961,10.2972,97.2415,-0.365573
block_1,4311,9,8562,1,-2.07493,60.7193,10.3353,96.9308,-0.365576
block_1,4312,9,8563,1,-2.54869,52.8471,10.7954,82.8193,-0.434855
block_1,4313,9,8564,1,-2.58164,52.3625,10.8356,82.5583,-0.434858
block_1,4314,9,8565,1,-3.25243,43.2547,11.2741,67.7832,-0.507612
block_1,4315,9,8566,1,-3.2938,42.8582,11.3162,67.5697,-0.507616
block_1,4316,9,8567,1,-2.61523,51.8762,10.8759,82.2964,-0.434861
block_1,4317,9,8568,1,-2.64951,51.3881,10.9161,82.0336,-0.434865
block_1,4318,9,8569,1,-3.33594,42.4602,11.3582,67.3553,-0.50762
block_1,4319,9,8570,1,-3.37886,42.0608,11.4002,67.1402,-0.507624
block_1,4320,9,8571,1,-3.99032,34.8881,11.4835,53.4087,-0.583194
block_1,4321,9,8572,1,-4.03838,34.5842,11.5269,53.245,-0.583197
block_1,4322,9,8573,1,-5.2622,24.9527,11.7666,38.1905,-0.660997
block_1,4323,9,8574,1,-5.32089,24.7355,11.8111,38.0735,-0.661001
block_1,4324,9,8575,1,-4.08722,34.2791,11.5704,53.0807,-0.583201
block_1,4325,9,8576,1,-4.13685,33.9729,11.6138,52.9158,-0.583205
block_1,4326,9,8577,1,-5.38036,24.5175,11.8557,37.9561,-0.661005
block_1,4327,9,8578,1,-5.4406,24.2986,11.9002,37.8382,-0.66101
block_1,4328,9,8579,1,-7.19818,15.019,11.9556,22.9741,-0.740379
block_1,4329,9,8580,1,-7.26503,14.8885,12.0008,22.9038,-0.740384
block_1,4330,9,8581,1,-10.2945,5.08647,12.0503,7.7587,-0.82071
block_1,4331,9,8582,1,-10.355,5.04266,12.0959,7.7351,-0.820715
block_1,4332,9,8583,1,-7.33243,14.7575,12.046,22.8332,-0.740389
block_1,4333,9,8584,1,-7.40039,14.626,12.0913,22.7624,-0.740393
block_1,4334,9,8585,1,-10.4156,4.99869,12.1415,7.7114,-0.82072
block_1,4335,9,8586,1,-10.4763,4.95455,12.1871,7.68762,-0.820725
block_1,4336,9,8587,1,-4.18729,33.6656,11.6572,52.7503,-0.583209
block_1,4337,9,8588,1,-4.23855,33.3571,11.7007,52.5842,-0.583213
block_1,4338,9,8589,1,-5.50163,24.0789,11.9447,37.7199,-0.661014
block_1,4339,9,8590,1,-5.56347,23.8585,11.9892,37.6012,-0.661019
block_1,4340,9,8591,1,-4.29066,33.0474,11.7441,52.4174,-0.583217
block_1,4341,9,8592,1,-4.34363,32.7367,11.7876,52.25,-0.583222
block_1,4342,9,8593,1,-5.62612,23.6371,12.0337,37.482,-0.661024
block_1,4343,9,8594,1,-5.68959,23.415,12.0782,37.3624,-0.661029
block_1,4344,9,8595,1,-7.46892,14.4941,12.1365,22.6913,-0.740398
block_1,4345,9,8596,1,-7.53802,14.3616,12.1817,22.6199,-0.740403
block_1,4346,9,8597,1,-10.5372,4.91025,12.2326,7.66375,-0.82073
block_1,4347,9,8598,1,-10.5983,4.86578,12.2782,7.63979,-0.820736
block_1,4348,9,8599,1,-7.60769,14.2286,12.2269,22.5483,-0.740409
block_1,4349,9,8600,1,-7.67793,14.0952,12.2722,22.4764,-0.740414
block_1,4350,9,8601,1,-10.6595,4.82115,12.3238,7.61574,-0.820742
block_1,4351,9,8602,1,-10.7208,4.77636,12.3694,7.5916,-0.820748
block_1,4352,9,8603,1,-0.00985571,143.613,0.758735,230.556,-0.00213045
block_1,4353,9,8604,1,-0.00985836,142.228,0.761537,229.81,-0.00213047
block_1,4354,9,8605,1,-0.0523024,134.304,2.21531,215.639,-0.0118233
block_1,4355,9,8606,1,-0.0528589,133.008,2.22346,214.942,-0.0118234
block_1,4356,9,8607,1,-0.00986254,140.838,0.764339,229.062,-0.0021305
block_1,4357,9,8608,1,-0.00986829,139.443,0.767141,228.31,-0.00213052
block_1,4358,9,8609,1,-0.05343,131.708,2.23161,214.242,-0.0118235
block_1,4359,9,8610,1,-0.0540163,130.403,2.23976,213.539,-0.0118237
block_1,4360,9,8611,1,-0.136999,125.005,3.57482,200.733,-0.0306596
block_1,4361,9,8612,1,-0.138675,123.799,3.58796,200.084,-0.03066
block_1,4362,9,8613,1,-0.264291,115.715,4.83726,185.837,-0.0580091
block_1,4363,9,8614,1,-0.267665,114.599,4.85503,185.235,-0.0580097
block_1,4364,9,8615,1,-0.140392,122.588,3.6011,199.432,-0.0306603
block_1,4365,9,8616,1,-0.142152,121.373,3.61424,198.777,-0.0306607
block_1,4366,9,8617,1,-0.271119,113.477,4.87281,184.632,-0.0580104
block_1,4367,9,8618,1,-0.274657,112.352,4.89058,184.026,-0.0580111
block_1,4368,9,8619,1,-0.00987569,138.043,0.769942,227.556,-0.00213055
block_1,4369,9,8620,1,-0.0098848,136.638,0.772744,226.8,-0.00213059
block_1,4370,9,8621,1,-0.0546182,129.093,2.24791,212.833,-0.0118238
block_1,4371,9,8622,1,-0.0552363,127.778,2.25606,212.126,-0.011824
block_1,4372,9,8623,1,-0.00989571,135.228,0.775546,226.04,-0.00213063
block_1,4373,9,8624,1,-0.00990847,133.812,0.778348,225.278,-0.00213067
block_1,4374,9,8625,1,-0.0558713,126.459,2.26421,211.415,-0.0118243
block_1,4375,9,8626,1,-0.0565237,125.135,2.27236,210.702,-0.0118245
block_1,4376,9,8627,1,-0.143955,120.153,3.62738,198.121,-0.0306611
block_1,4377,9,8628,1,-0.145803,118.929,3.64052,197.462,-0.0306616
block_1,4378,9,8629,1,-0.278281,111.223,4.90836,183.418,-0.0580119
block_1,4379,9,8630,1,-0.281994,110.09,4.92613,182.807,-0.0580129
block_1,4380,9,8631,1,-0.147699,117.701,3.65366,196.8,-0.0306622
block_1,4381,9,8632,1,-0.149643,116.468,3.66681,196.136,-0.0306628
block_1,4382,9,8633,1,-0.2858,108.952,4.94391,182.195,-0.0580139
block_1,4383,9,8634,1,-0.289702,107.811,4.96169,181.58,-0.0580151
block_1,4384,9,8635,1,-0.435284,106.435,6.00263,170.949,-0.0932414
block_1,4385,9,8636,1,-0.440956,105.407,6.02468,170.396,-0.0932423
block_1,4386,9,8637,1,-0.652189,97.1626,7.07092,156.07,-0.135726
block_1,4387,9,8638,1,-0.660795,96.2242,7.0969,155.564,-0.135727
block_1,4388,9,8639,1,-0.446762,104.376,6.04673,169.84,-0.0932434
block_1,4389,9,8640,1,-0.452706,103.341,6.06878,169.283,-0.0932445
block_1,4390,9,8641,1,-0.669602,95.2825,7.12287,155.057,-0.135729
block_1,4391,9,8642,1,-0.678617,94.3373,7.14885,154.548,-0.135731
block_1,4392,9,8643,1,-0.91885,87.8976,8.04215,141.198,-0.184832
block_1,4393,9,8644,1,-0.931079,87.0486,8.07169,140.74,-0.184834
block_1,4394,9,8645,1,-1.24159,78.6394,8.9163,126.332,-0.23993
block_1,4395,9,8646,1,-1.25821,77.8797,8.94905,125.923,-0.239933
block_1,4396,9,8647,1,-0.94359,86.1965,8.10123,140.282,-0.184836
block_1,4397,9,8648,1,-0.956391,85.3413,8.13077,139.821,-0.184839
block_1,4398,9,8649,1,-1.2752,77.1173,8.9818,125.513,-0.239935
block_1,4399,9,8650,1,-1.29259,76.352,9.01455,125.101,-0.239938
block_1,4400,9,8651,1,-0.458794,102.302,6.09084,168.723,-0.0932459
block_1,4401,9,8652,1,-0.465029,101.259,6.11289,168.162,-0.0932473
block_1,4402,9,8653,1,-0.687846,93.3886,7.17482,154.037,-0.135732
block_1,4403,9,8654,1,-0.697297,92.4366,7.2008,153.525,-0.135735
block_1,4404,9,8655,1,-0.471418,100.213,6.13495,167.598,-0.093249
block_1,4405,9,8656,1,-0.477966,99.1624,6.157,167.033,-0.093251
block_1,4406,9,8657,1,-0.706977,91.4811,7.22677,153.01,-0.135737
block_1,4407,9,8658,1,-0.716896,90.5221,7.25275,152.494,-0.13574
block_1,4408,9,8659,1,-0.969493,84.4829,8.16031,139.359,-0.184841
block_1,4409,9,8660,1,-0.982907,83.6215,8.18985,138.895,-0.184844
block_1,4410,9,8661,1,-1.31037,75.584,9.0473,124.687,-0.239942
block_1,4411,9,8662,1,-1.32857,74.8132,9.08005,124.272,-0.239945
block_1,4412,9,8663,1,-0.996642,82.7569,8.21939,138.429,-0.184847
block_1,4413,9,8664,1,-1.01071,81.8893,8.24894,137.962,-0.184851
block_1,4414,9,8665,1,-1.3472,74.0396,9.1128,123.855,-0.23995
block_1,4415,9,8666,1,-1.36628,73.2632,9.14555,123.437,-0.239954
block_1,4416,9,8667,1,-0.00992318,132.392,0.78115,224.513,-0.00213072
block_1,4417,9,8668,1,-0.00993991,130.966,0.783952,223.745,-0.00213078
block_1,4418,9,8669,1,-0.0571943,123.806,2.28051,209.986,-0.0118248
block_1,4419,9,8670,1,-0.0578837,122.473,2.28866,209.268,-0.0118251
block_1,4420,9,8671,1,-0.00995876,129.536,0.786754,222.975,-0.00213085
block_1,4421,9,8672,1,-0.00997981,128.1,0.789556,222.202,-0.00213094
block_1,4422,9,8673,1,-0.0585926,121.134,2.29681,208.548,-0.0118255
block_1,4423,9,8674,1,-0.0593218,119.791,2.30496,207.824,-0.0118259
block_1,4424,9,8675,1,-0.151638,115.231,3.67995,195.47,-0.0306635
block_1,4425,9,8676,1,-0.153685,113.989,3.69309,194.801,-0.0306644
block_1,4426,9,8677,1,-0.293703,106.665,4.97946,180.963,-0.0580165
block_1,4427,9,8678,1,-0.297808,105.515,4.99724,180.344,-0.0580181
block_1,4428,9,8679,1,-0.155787,112.743,3.70623,194.13,-0.0306654
block_1,4429,9,8680,1,-0.157946,111.493,3.71938,193.457,-0.0306665
block_1,4430,9,8681,1,-0.302019,104.362,5.01502,179.723,-0.05802
block_1,4431,9,8682,1,-0.306342,103.204,5.0328,179.099,-0.0580221
block_1,4432,9,8683,1,-0.0100032,126.659,0.792358,221.426,-0.00213103
block_1,4433,9,8684,1,-0.0100289,125.213,0.795161,220.648,-0.00213114
block_1,4434,9,8685,1,-0.0600722,118.443,2.31311,207.099,-0.0118264
block_1,4435,9,8686,1,-0.0608445,117.091,2.32127,206.37,-0.011827
block_1,4436,9,8687,1,-0.0100572,123.762,0.797964,219.866,-0.00213126
block_1,4437,9,8688,1,-0.0100881,122.306,0.800767,219.082,-0.0021314
block_1,4438,9,8689,1,-0.0616397,115.733,2.32942,205.639,-0.0118277
block_1,4439,9,8690,1,-0.0624587,114.371,2.33758,204.906,-0.0118284
block_1,4440,9,8691,1,-0.160163,110.238,3.73252,192.781,-0.0306678
block_1,4441,9,8692,1,-0.162442,108.978,3.74567,192.103,-0.0306693
block_1,4442,9,8693,1,-0.31078,102.042,5.05058,178.474,-0.0580245
block_1,4443,9,8694,1,-0.315339,100.876,5.06837,177.846,-0.0580272
block_1,4444,9,8695,1,-0.164784,107.715,3.75882,191.423,-0.030671
block_1,4445,9,8696,1,-0.167192,106.446,3.77197,190.74,-0.0306729
block_1,4446,9,8697,1,-0.320022,99.7055,5.08615,177.216,-0.0580304
block_1,4447,9,8698,1,-0.324835,98.5312,5.10394,176.583,-0.058034
block_1,4448,9,8699,1,-0.484679,98.1084,6.17906,166.465,-0.0932532
block_1,4449,9,8700,1,-0.491563,97.0506,6.20112,165.896,-0.0932557
block_1,4450,9,8701,1,-0.727062,89.5597,7.27873,151.976,-0.135743
block_1,4451,9,8702,1,-0.737484,88.5939,7.30471,151.455,-0.135747
block_1,4452,9,8703,1,-0.498624,95.9891,6.22318,165.324,-0.0932586
block_1,4453,9,8704,1,-0.505869,94.9238,6.24524,164.75,-0.093262
block_1,4454,9,8705,1,-0.74817,87.6246,7.33069,150.933,-0.135751
block_1,4455,9,8706,1,-0.759132,86.6519,7.35668,150.41,-0.135756
block_1,4456,9,8707,1,-1.02512,81.0185,8.27848,137.493,-0.184855
block_1,4457,9,8708,1,-1.0399,80.1446,8.30803,137.023,-0.18486
block_1,4458,9,8709,1,-1.38581,72.484,9.17831,123.018,-0.23996
block_1,4459,9,8710,1,-1.40582,71.7021,9.21106,122.597,-0.239966
block_1,4460,9,8711,1,-1.05504,79.2676,8.33757,136.55,-0.184866
block_1,4461,9,8712,1,-1.07056,78.3875,8.36712,136.076,-0.184872
block_1,4462,9,8713,1,-1.42632,70.9173,9.24382,122.174,-0.239973
block_1,4463,9,8714,1,-1.44733,70.1298,9.27658,121.75,-0.239981
block_1,4464,9,8715,1,-0.513305,93.8547,6.2673,164.175,-0.0932658
block_1,4465,9,8716,1,-0.52094,92.7818,6.28936,163.597,-0.0932701
block_1,4466,9,8717,1,-0.770379,85.6757,7.38266,149.884,-0.135761
block_1,4467,9,8718,1,-0.781923,84.6961,7.40865,149.357,-0.135767
block_1,4468,9,8719,1,-0.528781,91.7052,6.31142,163.017,-0.0932751
block_1,4469,9,8720,1,-0.536837,90.6248,6.33349,162.435,-0.0932807
block_1,4470,9,8721,1,-0.793775,83.7131,7.43463,148.827,-0.135774
block_1,4471,9,8722,1,-0.805947,82.7266,7.46063,148.296,-0.135782
block_1,4472,9,8723,1,-1.08649,77.5042,8.39667,135.601,-0.184879
block_1,4473,9,8724,1,-1.10282,76.6179,8.42623,135.123,-0.184887
block_1,4474,9,8725,1,-1.46886,69.3395,9.30934,121.324,-0.23999
block_1,4475,9,8726,1,-1.49095,68.5464,9.3421,120.897,-0.24
block_1,4476,9,8727,1,-1.11959,75.7285,8.45578,134.645,-0.184897
block_1,4477,9,8728,1,-1.1368,74.8359,8.48534,134.164,-0.184907
block_1,4478,9,8729,1,-1.5136,67.7505,9.37486,120.469,-0.240012
block_1,4479,9,8730,1,-1.53684,66.9519,9.40763,120.039,-0.240025
block_1,4480,9,8731,1,-1.63063,69.3873,9.69339,111.473,-0.300389
block_1,4481,9,8732,1,-1.65252,68.7169,9.72899,111.112,-0.300392
block_1,4482,9,8733,1,-2.10251,60.1404,10.3734,96.6191,-0.365579
block_1,4483,9,8734,1,-2.13069,59.5594,10.4115,96.3062,-0.365583
block_1,4484,9,8735,1,-1.67488,68.0441,9.76459,110.75,-0.300396
block_1,4485,9,8736,1,-1.69775,67.3688,9.80019,110.386,-0.300399
block_1,4486,9,8737,1,-2.15946,58.9762,10.4496,95.9921,-0.365586
block_1,4487,9,8738,1,-2.18886,58.3909,10.4877,95.6769,-0.365591
block_1,4488,9,8739,1,-2.68447,50.8982,10.9563,81.7697,-0.434869
block_1,4489,9,8740,1,-2.72014,50.4065,10.9966,81.5049,-0.434873
block_1,4490,9,8741,1,-3.42258,41.6599,11.4422,66.9243,-0.507628
block_1,4491,9,8742,1,-3.46713,41.2575,11.4842,66.7076,-0.507633
block_1,4492,9,8743,1,-2.75654,49.9129,11.0368,81.2392,-0.434878
block_1,4493,9,8744,1,-2.79369,49.4176,11.0771,80.9724,-0.434883
block_1,4494,9,8745,1,-3.51253,40.8536,11.5263,66.4901,-0.507638
block_1,4495,9,8746,1,-3.55879,40.4482,11.5683,66.2718,-0.507644
block_1,4496,9,8747,1,-1.72114,66.6911,9.83579,110.021,-0.300403
block_1,4497,9,8748,1,-1.74505,66.0109,9.87139,109.655,-0.300408
block_1,4498,9,8749,1,-2.21891,57.8035,10.5258,95.3606,-0.365596
block_1,4499,9,8750,1,-2.24961,57.2139,10.5639,95.0431,-0.365601
block_1,4500,9,8751,1,-1.76952,65.3282,9.907,109.287,-0.300413
block_1,4501,9,8752,1,-1.79456,64.6431,9.9426,108.918,-0.300419
block_1,4502,9,8753,1,-2.281,56.6222,10.602,94.7245,-0.365607
block_1,4503,9,8754,1,-2.31309,56.0284,10.6401,94.4047,-0.365614
block_1,4504,9,8755,1,-2.83162,48.9205,11.1173,80.7047,-0.434888
block_1,4505,9,8756,1,-2.87034,48.4216,11.1575,80.436,-0.434895
block_1,4506,9,8757,1,-3.60594,40.0414,11.6103,66.0527,-0.50765
block_1,4507,9,8758,1,-3.654,39.6331,11.6523,65.8328,-0.507658
block_1,4508,9,8759,1,-2.90987,47.9208,11.1978,80.1664,-0.434902
block_1,4509,9,8760,1,-2.95025,47.4183,11.238,79.8957,-0.434909
block_1,4510,9,8761,1,-3.703,39.2233,11.6943,65.6122,-0.507665
block_1,4511,9,8762,1,-3.75295,38.8121,11.7364,65.3907,-0.507674
block_1,4512,9,8763,1,-4.39747,32.4247,11.831,52.082,-0.583227
block_1,4513,9,8764,1,-4.45221,32.1116,11.8745,51.9134,-0.583232
block_1,4514,9,8765,1,-5.7539,23.1921,12.1227,37.2423,-0.661035
block_1,4515,9,8766,1,-5.81906,22.9683,12.1673,37.1218,-0.661041
block_1,4516,9,8767,1,-4.50787,31.7974,11.9179,51.7442,-0.583238
block_1,4517,9,8768,1,-4.56445,31.482,11.9613,51.5744,-0.583245
block_1,4518,9,8769,1,-5.88508,22.7437,12.2118,37.0008,-0.661047
block_1,4519,9,8770,1,-5.95197,22.5183,12.2563,36.8794,-0.661054
block_1,4520,9,8771,1,-7.74875,13.9612,12.3174,22.4043,-0.740421
block_1,4521,9,8772,1,-7.82015,13.8268,12.3626,22.3319,-0.740427
block_1,4522,9,8773,1,-10.7823,4.7314,12.415,7.56737,-0.820755
block_1,4523,9,8774,1,-10.844,4.68627,12.4606,7.54306,-0.820761
block_1,4524,9,8775,1,-7.89213,13.6918,12.4079,22.2592,-0.740434
block_1,4525,9,8776,1,-7.96471,13.5564,12.4531,22.1863,-0.740442
block_1,4526,9,8777,1,-10.9058,4.64099,12.5062,7.51865,-0.820769
block_1,4527,9,8778,1,-10.9678,4.59553,12.5517,7.49416,-0.820777
block_1,4528,9,8779,1,-4.62199,31.1655,12.0048,51.4039,-0.583252
block_1,4529,9,8780,1,-4.6805,30.8478,12.0482,51.2328,-0.58326
block_1,4530,9,8781,1,-6.01974,22.2921,12.3008,36.7576,-0.661062
block_1,4531,9,8782,1,-6.08841,22.0651,12.3453,36.6353,-0.66107
block_1,4532,9,8783,1,-4.74,30.529,12.0917,51.0611,-0.583268
block_1,4533,9,8784,1,-4.80051,30.2091,12.1351,50.8888,-0.583278
block_1,4534,9,8785,1,-6.15799,21.8372,12.3898,36.5126,-0.66108
block_1,4535,9,8786,1,-6.22849,21.6085,12.4344,36.3894,-0.661091
block_1,4536,9,8787,1,-8.03787,13.4205,12.4983,22.1131,-0.74045
block_1,4537,9,8788,1,-8.11163,13.2841,12.5435,22.0396,-0.740459
block_1,4538,9,8789,1,-11.0299,4.54992,12.5973,7.46958,-0.820786
block_1,4539,9,8790,1,-11.0922,4.50414,12.6429,7.44491,-0.820796
block_1,4540,9,8791,1,-8.18598,13.1472,12.5888,21.9658,-0.74047
block_1,4541,9,8792,1,-8.26094,13.0098,12.634,21.8918,-0.740481
block_1,4542,9,8793,1,-11.1546,4.45819,12.6885,7.42015,-0.820807
block_1,4543,9,8794,1,-11.2172,4.41209,12.7341,7.3953,-0.820819
block_1,4544,9,8795,1,-1.82018,63.9556,9.97821,108.548,-0.300425
block_1,4545,9,8796,1,-1.84642,63.2656,10.0138,108.176,-0.300433
block_1,4546,9,8797,1,-2.34591,55.4325,10.6782,94.0838,-0.365622
block_1,4547,9,8798,1,-2.37948,54.8344,10.7163,93.7617,-0.365631
block_1,4548,9,8799,1,-1.87328,62.5731,10.0494,107.804,-0.300441
block_1,4549,9,8800,1,-1.90079,61.8782,10.085,107.429,-0.300451
block_1,4550,9,8801,1,-2.41382,54.2342,10.7544,93.4385,-0.365641
block_1,4551,9,8802,1,-2.44896,53.6319,10.7925,93.1141,-0.365652
block_1,4552,9,8803,1,-2.99149,46.914,11.2782,79.6242,-0.434918
block_1,4553,9,8804,1,-3.03363,46.4078,11.3185,79.3516,-0.434928
block_1,4554,9,8805,1,-3.80389,38.3994,11.7784,65.1684,-0.507684
block_1,4555,9,8806,1,-3.85583,37.9852,11.8204,64.9454,-0.507696
block_1,4556,9,8807,1,-3.07668,45.8999,11.3587,79.0781,-0.43494
block_1,4557,9,8808,1,-3.12067,45.3902,11.399,78.8036,-0.434953
block_1,4558,9,8809,1,-3.90881,37.5695,11.8624,64.7215,-0.507708
block_1,4559,9,8810,1,-3.96285,37.1524,11.9045,64.4969,-0.507723
block_1,4560,9,8811,1,-1.92897,61.1808,10.1206,107.054,-0.300462
block_1,4561,9,8812,1,-1.95785,60.4809,10.1563,106.677,-0.300474
block_1,4562,9,8813,1,-2.48492,53.0274,10.8306,92.7886,-0.365665
block_1,4563,9,8814,1,-2.52174,52.4208,10.8687,92.462,-0.365679
block_1,4564,9,8815,1,-1.98745,59.7787,10.1919,106.299,-0.300488
block_1,4565,9,8816,1,-2.0178,59.0739,10.2275,105.919,-0.300504
block_1,4566,9,8817,1,-2.55944,51.8121,10.9068,92.1342,-0.365695
block_1,4567,9,8818,1,-2.59805,51.2012,10.945,91.8052,-0.365713
block_1,4568,9,8819,1,-3.16564,44.8786,11.4392,78.5281,-0.434967
block_1,4569,9,8820,1,-3.21161,44.3653,11.4795,78.2516,-0.434983
block_1,4570,9,8821,1,-4.01799,36.7337,11.9465,64.2714,-0.507739
block_1,4571,9,8822,1,-4.07424,36.3137,11.9885,64.0452,-0.507757
block_1,4572,9,8823,1,-3.25862,43.8501,11.5197,77.9742,-0.435002
block_1,4573,9,8824,1,-3.30669,43.3332,11.56,77.6958,-0.435022
block_1,4574,9,8825,1,-4.13163,35.8921,12.0306,63.8182,-0.507777
block_1,4575,9,8826,1,-4.19021,35.4691,12.0726,63.5904,-0.5078
block_1,4576,9,8827,1,-4.86206,29.888,12.1786,50.7159,-0.583289
block_1,4577,9,8828,1,-4.92466,29.5657,12.222,50.5423,-0.583302
block_1,4578,9,8829,1,-6.29992,21.379,12.4789,36.2658,-0.661103
block_1,4579,9,8830,1,-6.3723,21.1487,12.5234,36.1418,-0.661116
block_1,4580,9,8831,1,-4.98833,29.2423,12.2655,50.3682,-0.583316
block_1,4581,9,8832,1,-5.05311,28.9178,12.3089,50.1934,-0.583331
block_1,4582,9,8833,1,-6.44564,20.9176,12.5679,36.0173,-0.661131
block_1,4583,9,8834,1,-6.51995,20.6856,12.6124,35.8924,-0.661148
block_1,4584,9,8835,1,-8.3365,12.8719,12.6792,21.8176,-0.740494
block_1,4585,9,8836,1,-8.41267,12.7335,12.7245,21.743,-0.740508
block_1,4586,9,8837,1,-11.28,4.36582,12.7797,7.37037,-0.820832
block_1,4587,9,8838,1,-11.3428,4.31938,12.8253,7.34534,-0.820847
block_1,4588,9,8839,1,-8.48944,12.5947,12.7697,21.6682,-0.740524
block_1,4589,9,8840,1,-8.56683,12.4553,12.8149,21.5932,-0.740541
block_1,4590,9,8841,1,-11.4059,4.27278,12.8709,7.32023,-0.820863
block_1,4591,9,8842,1,-11.4691,4.22602,12.9165,7.29502,-0.820881
block_1,4592,9,8843,1,-5.11901,28.5921,12.3524,50.018,-0.583349
block_1,4593,9,8844,1,-5.18605,28.2652,12.3959,49.842,-0.583369
block_1,4594,9,8845,1,-6.59525,20.4529,12.657,35.767,-0.661166
block_1,4595,9,8846,1,-6.67155,20.2193,12.7015,35.6412,-0.661187
block_1,4596,9,8847,1,-5.25426,27.9373,12.4393,49.6653,-0.583391
block_1,4597,9,8848,1,-5.32367,27.6081,12.4828,49.4881,-0.583415
block_1,4598,9,8849,1,-6.74885,19.9849,12.746,35.515,-0.661211
block_1,4599,9,8850,1,-6.82719,19.7497,12.7905,35.3883,-0.661237
block_1,4600,9,8851,1,-8.64484,12.3155,12.8602,21.5178,-0.740561
block_1,4601,9,8852,1,-8.72347,12.1751,12.9054,21.4423,-0.740583
block_1,4602,9,8853,1,-11.5324,4.1791,12.962,7.26973,-0.820902
block_1,4603,9,8854,1,-11.5959,4.13202,13.0076,7.24435,-0.820925
block_1,4604,9,8855,1,-8.80272,12.0343,12.9507,21.3664,-0.740608
block_1,4605,9,8856,1,-8.88259,11.893,12.9959,21.2903,-0.740635
block_1,4606,9,8857,1,-11.6596,4.08477,13.0532,7.21888,-0.82095
block_1,4607,9,8858,1,-11.7234,4.03736,13.0988,7.19333,-0.820979
block_1,4608,9,8859,1,-0.0101218,120.845,0.80357,218.296,-0.00213157
block_1,4609,9,8860,1,-0.0101583,119.379,0.806374,217.506,-0.00213175
block_1,4610,9,8861,1,-0.0633024,113.004,2.34573,204.17,-0.0118293
block_1,4611,9,8862,1,-0.0641721,111.633,2.35389,203.431,-0.0118303
block_1,4612,9,8863,1,-0.0101979,117.908,0.809178,216.714,-0.00213196
block_1,4613,9,8864,1,-0.0102406,116.432,0.811983,215.919,-0.00213219
block_1,4614,9,8865,1,-0.0650687,110.256,2.36205,202.69,-0.0118314
block_1,4615,9,8866,1,-0.0659934,108.875,2.3702,201.946,-0.0118327
block_1,4616,9,8867,1,-0.16967,105.174,3.78512,190.054,-0.0306751
block_1,4617,9,8868,1,-0.172219,103.897,3.79827,189.367,-0.0306776
block_1,4618,9,8869,1,-0.329783,97.3528,5.12173,175.949,-0.058038
block_1,4619,9,8870,1,-0.334873,96.1704,5.13952,175.312,-0.0580426
block_1,4620,9,8871,1,-0.174844,102.615,3.81142,188.677,-0.0306804
block_1,4621,9,8872,1,-0.177546,101.329,3.82458,187.984,-0.0306835
block_1,4622,9,8873,1,-0.340109,94.9838,5.15731,174.673,-0.0580477
block_1,4623,9,8874,1,-0.345498,93.7931,5.17511,174.032,-0.0580535
block_1,4624,9,8875,1,-0.0102866,114.95,0.814788,215.121,-0.00213246
block_1,4625,9,8876,1,-0.010336,113.464,0.817594,214.321,-0.00213275
block_1,4626,9,8877,1,-0.0669476,107.49,2.37837,201.2,-0.0118341
block_1,4627,9,8878,1,-0.0679324,106.099,2.38653,200.451,-0.0118356
block_1,4628,9,8879,1,-0.0103891,111.972,0.820401,213.517,-0.00213307
block_1,4629,9,8880,1,-0.010446,110.475,0.823208,212.712,-0.00213343
block_1,4630,9,8881,1,-0.0689493,104.703,2.39469,199.7,-0.0118373
block_1,4631,9,8882,1,-0.0699997,103.303,2.40286,198.946,-0.0118392
block_1,4632,9,8883,1,-0.18033,100.039,3.83774,187.289,-0.030687
block_1,4633,9,8884,1,-0.183199,98.7444,3.8509,186.592,-0.0306909
block_1,4634,9,8885,1,-0.351046,92.5983,5.19291,173.388,-0.0580598
block_1,4635,9,8886,1,-0.356762,91.3994,5.21071,172.743,-0.0580669
block_1,4636,9,8887,1,-0.186157,97.4452,3.86407,185.893,-0.0306951
block_1,4637,9,8888,1,-0.189208,96.1416,3.87724,185.191,-0.0306997
block_1,4638,9,8889,1,-0.362651,90.1965,5.22852,172.095,-0.0580745
block_1,4639,9,8890,1,-0.368722,88.9894,5.24633,171.445,-0.0580829
block_1,4640,9,8891,1,-0.545117,89.5407,6.35556,161.852,-0.093287
block_1,4641,9,8892,1,-0.553629,88.4528,6.37763,161.266,-0.0932941
block_1,4642,9,8893,1,-0.818452,81.7367,7.48662,147.763,-0.135791
block_1,4643,9,8894,1,-0.831304,80.7434,7.51262,147.228,-0.135801
block_1,4644,9,8895,1,-0.562383,87.3611,6.39971,160.678,-0.0933021
block_1,4645,9,8896,1,-0.571389,86.2656,6.42179,160.088,-0.093311
block_1,4646,9,8897,1,-0.844516,79.7466,7.53862,146.691,-0.135812
block_1,4647,9,8898,1,-0.858103,78.7463,7.56462,146.153,-0.135825
block_1,4648,9,8899,1,-1.15448,73.9402,8.5149,133.682,-0.184919
block_1,4649,9,8900,1,-1.17263,73.0414,8.54446,133.198,-0.184932
block_1,4650,9,8901,1,-1.5607,66.1504,9.4404,119.607,-0.240039
block_1,4651,9,8902,1,-1.58519,65.3462,9.47317,119.174,-0.240056
block_1,4652,9,8903,1,-1.19129,72.1395,8.57403,132.712,-0.184947
block_1,4653,9,8904,1,-1.21046,71.2345,8.6036,132.225,-0.184963
block_1,4654,9,8905,1,-1.61033,64.5392,9.50595,118.739,-0.240074
block_1,4655,9,8906,1,-1.63617,63.7294,9.53873,118.303,-0.240094
block_1,4656,9,8907,1,-0.580659,85.1664,6.44387,159.496,-0.0933208
block_1,4657,9,8908,1,-0.590203,84.0634,6.46596,158.902,-0.0933316
block_1,4658,9,8909,1,-0.872081,77.7427,7.59063,145.612,-0.135838
block_1,4659,9,8910,1,-0.886467,76.7355,7.61664,145.07,-0.135853
block_1,4660,9,8911,1,-0.600033,82.9566,6.48805,158.306,-0.0933434
block_1,4661,9,8912,1,-0.610162,81.8461,6.51015,157.708,-0.0933562
block_1,4662,9,8913,1,-0.901278,75.725,7.64266,144.526,-0.13587
block_1,4663,9,8914,1,-0.916532,74.711,7.66868,143.98,-0.135887
block_1,4664,9,8915,1,-1.23018,70.3264,8.63318,131.736,-0.184981
block_1,4665,9,8916,1,-1.25047,69.4151,8.66276,131.245,-0.185
block_1,4666,9,8917,1,-1.66271,62.9168,9.57152,117.866,-0.240116
block_1,4667,9,8918,1,-1.69,62.1014,9.60431,117.427,-0.24014
block_1,4668,9,8919,1,-1.27134,68.5008,8.69234,130.752,-0.185021
block_1,4669,9,8920,1,-1.29282,67.5833,8.72193,130.258,-0.185044
block_1,4670,9,8921,1,-1.71805,61.2833,9.6371,116.986,-0.240166
block_1,4671,9,8922,1,-1.74691,60.4624,9.6699,116.544,-0.240194
block_1,4672,9,8923,1,-0.0105069,108.974,0.826016,211.903,-0.00213381
block_1,4673,9,8924,1,-0.010572,107.467,0.828826,211.092,-0.00213423
block_1,4674,9,8925,1,-0.0710852,101.898,2.41103,198.19,-0.0118412
block_1,4675,9,8926,1,-0.0722074,100.489,2.4192,197.43,-0.0118433
block_1,4676,9,8927,1,-0.0106415,105.955,0.831636,210.277,-0.00213467
block_1,4677,9,8928,1,-0.0107156,104.438,0.834447,209.461,-0.00213514
block_1,4678,9,8929,1,-0.0733681,99.0743,2.42738,196.669,-0.0118456
block_1,4679,9,8930,1,-0.0745691,97.6551,2.43556,195.905,-0.011848
block_1,4680,9,8931,1,-0.192357,94.8335,3.89041,184.486,-0.0307047
block_1,4681,9,8932,1,-0.195607,93.521,3.90359,183.78,-0.03071
block_1,4682,9,8933,1,-0.374982,87.7782,5.26415,170.793,-0.0580918
block_1,4683,9,8934,1,-0.381442,86.5629,5.28197,170.138,-0.0581013
block_1,4684,9,8935,1,-0.198963,92.2041,3.91677,183.071,-0.0307156
block_1,4685,9,8936,1,-0.202431,90.8828,3.92995,182.359,-0.0307214
block_1,4686,9,8937,1,-0.388109,85.3435,5.2998,169.482,-0.0581113
block_1,4687,9,8938,1,-0.394994,84.12,5.31763,168.823,-0.0581215
block_1,4688,9,8939,1,-0.0107945,102.916,0.83726,208.641,-0.00213562
block_1,4689,9,8940,1,-0.0108785,101.388,0.840073,207.819,-0.0021361
block_1,4690,9,8941,1,-0.0758123,96.2312,2.44374,195.138,-0.0118505
block_1,4691,9,8942,1,-0.0770999,94.8024,2.45192,194.369,-0.0118529
block_1,4692,9,8943,1,-0.0109679,99.856,0.842888,206.994,-0.00213658
block_1,4693,9,8944,1,-0.0110629,98.3185,0.845704,206.166,-0.00213703
block_1,4694,9,8945,1,-0.0784339,93.3689,2.46011,193.597,-0.0118553
block_1,4695,9,8946,1,-0.0798166,91.9306,2.4683,192.822,-0.0118575
block_1,4696,9,8947,1,-0.206016,89.557,3.94314,181.645,-0.0307273
block_1,4697,9,8948,1,-0.209723,88.2268,3.95633,180.929,-0.0307332
block_1,4698,9,8949,1,-0.402106,82.8924,5.33547,168.162,-0.0581318
block_1,4699,9,8950,1,-0.409457,81.6607,5.35331,167.499,-0.0581418
block_1,4700,9,8951,1,-0.213558,86.8921,3.96953,180.21,-0.0307387
block_1,4701,9,8952,1,-0.217529,85.553,3.98273,179.489,-0.0307438
block_1,4702,9,8953,1,-0.417058,80.4249,5.37115,166.833,-0.0581513
block_1,4703,9,8954,1,-0.424921,79.185,5.389,166.166,-0.0581596
block_1,4704,9,8955,1,-0.620604,80.7318,6.53225,157.108,-0.0933698
block_1,4705,9,8956,1,-0.631372,79.6137,6.55436,156.506,-0.0933842
block_1,4706,9,8957,1,-0.93225,73.6935,7.69471,143.432,-0.135906
block_1,4707,9,8958,1,-0.94845,72.6726,7.72075,142.882,-0.135926
block_1,4708,9,8959,1,-0.642481,78.4918,6.57647,155.902,-0.0933991
block_1,4709,9,8960,1,-0.653948,77.3662,6.59859,155.296,-0.0934144
block_1,4710,9,8961,1,-0.965155,71.6483,7.74679,142.33,-0.135946
block_1,4711,9,8962,1,-0.982388,70.6205,7.77283,141.777,-0.135967
block_1,4712,9,8963,1,-1.31494,66.6627,8.75153,129.763,-0.185068
block_1,4713,9,8964,1,-1.33773,65.739,8.78113,129.265,-0.185093
block_1,4714,9,8965,1,-1.7766,59.6386,9.70271,116.1,-0.240223
block_1,4715,9,8966,1,-1.80715,58.8121,9.73552,115.655,-0.240253
block_1,4716,9,8967,1,-1.36121,64.8122,8.81074,128.766,-0.185119
block_1,4717,9,8968,1,-1.38542,63.8823,8.84036,128.265,-0.185145
block_1,4718,9,8969,1,-1.83862,57.9829,9.76834,115.209,-0.240285
block_1,4719,9,8970,1,-1.87102,57.1508,9.80116,114.761,-0.240316
block_1,4720,9,8971,1,-0.665787,76.2368,6.62071,154.688,-0.0934296
block_1,4721,9,8972,1,-0.678018,75.1036,6.64284,154.078,-0.0934443
block_1,4722,9,8973,1,-1.00017,69.5893,7.79888,141.222,-0.135987
block_1,4723,9,8974,1,-1.01853,68.5546,7.82494,140.665,-0.136006
block_1,4724,9,8975,1,-0.690658,73.9666,6.66498,153.465,-0.0934578
block_1,4725,9,8976,1,-0.703727,72.8259,6.68712,152.851,-0.0934692
block_1,4726,9,8977,1,-1.0375,67.5165,7.851,140.106,-0.136024
block_1,4727,9,8978,1,-1.05709,66.475,7.87707,139.545,-0.136038
block_1,4728,9,8979,1,-1.41038,62.9492,8.86997,127.763,-0.18517
block_1,4729,9,8980,1,-1.43613,62.0131,8.8996,127.259,-0.185194
block_1,4730,9,8981,1,-1.90441,56.3159,9.83399,114.311,-0.240346
block_1,4731,9,8982,1,-1.93882,55.4783,9.86682,113.86,-0.240373
block_1,4732,9,8983,1,-1.46271,61.0738,8.92923,126.753,-0.185215
block_1,4733,9,8984,1,-1.49015,60.1315,8.95886,126.246,-0.185231
block_1,4734,9,8985,1,-1.9743,54.6379,9.89966,113.407,-0.240397
block_1,4735,9,8986,1,-2.01089,53.7947,9.93249,112.953,-0.240415
block_1,4736,9,8987,1,-2.04892,58.3667,10.2631,105.538,-0.300521
block_1,4737,9,8988,1,-2.08084,57.657,10.2987,105.156,-0.300541
block_1,4738,9,8989,1,-2.63761,50.5883,10.9831,91.4751,-0.365734
block_1,4739,9,8990,1,-2.67813,49.9732,11.0212,91.1439,-0.365756
block_1,4740,9,8991,1,-2.1136,56.9449,10.3344,104.773,-0.300562
block_1,4741,9,8992,1,-2.14721,56.2303,10.37,104.388,-0.300586
block_1,4742,9,8993,1,-2.71967,49.3559,11.0593,90.8115,-0.365781
block_1,4743,9,8994,1,-2.76225,48.7366,11.0974,90.478,-0.365809
block_1,4744,9,8995,1,-3.35586,42.8145,11.6002,77.4165,-0.435045
block_1,4745,9,8996,1,-3.40616,42.2939,11.6405,77.1362,-0.435071
block_1,4746,9,8997,1,-4.25,35.0446,12.1146,63.3618,-0.507825
block_1,4747,9,8998,1,-4.31103,34.6186,12.1567,63.1323,-0.507854
block_1,4748,9,8999,1,-3.45763,41.7716,11.6808,76.8549,-0.435099
block_1,4749,9,9000,1,-3.51031,41.2475,11.721,76.5726,-0.43513
block_1,4750,9,9001,1,-4.37333,34.1912,12.1987,62.9022,-0.507885
block_1,4751,9,9002,1,-4.43695,33.7622,12.2408,62.6712,-0.507919
block_1,4752,9,9003,1,-2.18173,55.5133,10.4056,104.002,-0.300613
block_1,4753,9,9004,1,-2.21717,54.7938,10.4413,103.614,-0.300641
block_1,4754,9,9005,1,-2.8059,48.1151,11.1356,90.1433,-0.365839
block_1,4755,9,9006,1,-2.85068,47.4915,11.1737,89.8075,-0.365872
block_1,4756,9,9007,1,-2.25357,54.0719,10.4769,103.226,-0.300672
block_1,4757,9,9008,1,-2.29098,53.3475,10.5126,102.835,-0.300704
block_1,4758,9,9009,1,-2.89661,46.8658,11.2119,89.4705,-0.365907
block_1,4759,9,9010,1,-2.94374,46.2379,11.25,89.1324,-0.365944
block_1,4760,9,9011,1,-3.56422,40.7215,11.7613,76.2894,-0.435164
block_1,4761,9,9012,1,-3.61942,40.1938,11.8016,76.0052,-0.4352
block_1,4762,9,9013,1,-4.5019,33.3318,12.2828,62.4394,-0.507956
block_1,4763,9,9014,1,-4.56825,32.9,12.3249,62.2068,-0.507996
block_1,4764,9,9015,1,-3.67595,39.6643,11.8418,75.72,-0.43524
block_1,4765,9,9016,1,-3.73383,39.1329,11.8821,75.4339,-0.435281
block_1,4766,9,9017,1,-4.636,32.4667,12.3669,61.9734,-0.508039
block_1,4767,9,9018,1,-4.70522,32.0319,12.409,61.7393,-0.508084
block_1,4768,9,9019,1,-5.39429,27.2779,12.5262,49.3102,-0.583443
block_1,4769,9,9020,1,-5.46615,26.9465,12.5697,49.1317,-0.583473
block_1,4770,9,9021,1,-6.90656,19.5136,12.8351,35.2612,-0.661266
block_1,4771,9,9022,1,-6.98699,19.2768,12.8796,35.1336,-0.661299
block_1,4772,9,9023,1,-5.53929,26.6139,12.6132,48.9526,-0.583507
block_1,4773,9,9024,1,-5.61372,26.2802,12.6566,48.7729,-0.583543
block_1,4774,9,9025,1,-7.06848,19.0391,12.9241,35.0056,-0.661334
block_1,4775,9,9026,1,-7.15106,18.8006,12.9687,34.8771,-0.661373
block_1,4776,9,9027,1,-8.96309,11.7512,13.0411,21.2139,-0.740666
block_1,4777,9,9028,1,-9.04423,11.6089,13.0864,21.1372,-0.7407
block_1,4778,9,9029,1,-11.7873,3.98979,13.1444,7.16768,-0.82101
block_1,4779,9,9030,1,-11.8514,3.94206,13.19,7.14195,-0.821045
block_1,4780,9,9031,1,-9.126,11.4661,13.1316,21.0603,-0.740737
block_1,4781,9,9032,1,-9.2084,11.3229,13.1769,20.9831,-0.740777
block_1,4782,9,9033,1,-11.9157,3.89417,13.2356,7.11613,-0.821083
block_1,4783,9,9034,1,-11.9801,3.84612,13.2812,7.09022,-0.821124
block_1,4784,9,9035,1,-5.68947,25.9454,12.7001,48.5926,-0.583583
block_1,4785,9,9036,1,-5.76657,25.6094,12.7436,48.4116,-0.583626
block_1,4786,9,9037,1,-7.23472,18.5613,13.0132,34.7482,-0.661415
block_1,4787,9,9038,1,-7.3195,18.3212,13.0577,34.6189,-0.661461
block_1,4788,9,9039,1,-5.84505,25.2723,12.7871,48.23,-0.583672
block_1,4789,9,9040,1,-5.92493,24.934,12.8305,48.0479,-0.583721
block_1,4790,9,9041,1,-7.40539,18.0803,13.1023,34.4891,-0.661509
block_1,4791,9,9042,1,-7.49242,17.8386,13.1468,34.3589,-0.66156
block_1,4792,9,9043,1,-9.29145,11.1791,13.2221,20.9057,-0.740821
block_1,4793,9,9044,1,-9.37513,11.0349,13.2673,20.828,-0.740868
block_1,4794,9,9045,1,-12.0446,3.79792,13.3268,7.06422,-0.821169
block_1,4795,9,9046,1,-12.1093,3.74955,13.3724,7.03813,-0.821218
block_1,4796,9,9047,1,-9.45947,10.8901,13.3126,20.75,-0.740918
block_1,4797,9,9048,1,-9.54445,10.7449,13.3578,20.6718,-0.740971
block_1,4798,9,9049,1,-12.1742,3.70103,13.418,7.01196,-0.821269
block_1,4799,9,9050,1,-12.2392,3.65235,13.4636,6.9857,-0.821323
block_1,4800,9,9051,1,-2.32943,52.6206,10.5482,102.444,-0.300739
block_1,4801,9,9052,1,-2.36896,51.8913,10.5839,102.051,-0.300774
block_1,4802,9,9053,1,-2.99211,45.6079,11.2881,88.7931,-0.365983
block_1,4803,9,9054,1,-3.04177,44.9758,11.3263,88.4527,-0.366024
block_1,4804,9,9055,1,-2.40961,51.1596,10.6196,101.657,-0.300811
block_1,4805,9,9056,1,-2.45143,50.4253,10.6553,101.262,-0.300847
block_1,4806,9,9057,1,-3.09276,44.3416,11.3645,88.1111,-0.366065
block_1,4807,9,9058,1,-3.14513,43.7052,11.4026,87.7684,-0.366105
block_1,4808,9,9059,1,-3.79313,38.5998,11.9224,75.1468,-0.435325
block_1,4809,9,9060,1,-3.85388,38.0649,11.9627,74.8587,-0.43537
block_1,4810,9,9061,1,-4.77593,31.5956,12.451,61.5043,-0.508131
block_1,4811,9,9062,1,-4.84817,31.1579,12.4931,61.2686,-0.50818
block_1,4812,9,9063,1,-3.91613,37.5282,12.003,74.5696,-0.435415
block_1,4813,9,9064,1,-3.97993,36.9897,12.0433,74.2796,-0.435459
block_1,4814,9,9065,1,-4.92199,30.7187,12.5352,61.032,-0.508229
block_1,4815,9,9066,1,-4.99743,30.278,12.5772,60.7947,-0.508276
block_1,4816,9,9067,1,-2.49447,49.6887,10.6909,100.865,-0.300881
block_1,4817,9,9068,1,-2.53877,48.9496,10.7266,100.467,-0.300912
block_1,4818,9,9069,1,-3.19894,43.0667,11.4408,87.4246,-0.366143
block_1,4819,9,9070,1,-3.25422,42.4261,11.479,87.0796,-0.366178
block_1,4820,9,9071,1,-2.58438,48.208,10.7623,100.068,-0.300938
block_1,4821,9,9072,1,-2.63135,47.464,10.798,99.6672,-0.300957
block_1,4822,9,9073,1,-3.31105,41.7834,11.5171,86.7335,-0.366206
block_1,4823,9,9074,1,-3.36946,41.1386,11.5553,86.3862,-0.366224
block_1,4824,9,9075,1,-4.04532,36.4494,12.0836,73.9886,-0.4355
block_1,4825,9,9076,1,-4.11237,35.9073,12.1239,73.6967,-0.435537
block_1,4826,9,9077,1,-5.07453,29.8359,12.6193,60.5566,-0.50832
block_1,4827,9,9078,1,-5.15332,29.3923,12.6614,60.3177,-0.508359
block_1,4828,9,9079,1,-4.18111,35.3634,12.1642,73.4038,-0.435566
block_1,4829,9,9080,1,-4.25161,34.8177,12.2045,73.1099,-0.435585
block_1,4830,9,9081,1,-5.23387,28.9473,12.7035,60.078,-0.508389
block_1,4831,9,9082,1,-5.3162,28.5007,12.7456,59.8375,-0.508407
block_1,4832,9,9083,1,-6.00624,24.5946,12.874,47.8651,-0.583771
block_1,4833,9,9084,1,-6.08901,24.2541,12.9175,47.6816,-0.583823
block_1,4834,9,9085,1,-7.58059,17.596,13.1914,34.2283,-0.661613
block_1,4835,9,9086,1,-7.66992,17.3527,13.2359,34.0972,-0.661668
block_1,4836,9,9087,1,-6.17327,23.9124,12.961,47.4976,-0.583875
block_1,4837,9,9088,1,-6.25905,23.5696,13.0045,47.313,-0.583925
block_1,4838,9,9089,1,-7.76043,17.1085,13.2805,33.9657,-0.661722
block_1,4839,9,9090,1,-7.85212,16.8636,13.325,33.8337,-0.661774
block_1,4840,9,9091,1,-9.63007,10.5993,13.4031,20.5933,-0.741026
block_1,4841,9,9092,1,-9.71635,10.4531,13.4483,20.5145,-0.741083
block_1,4842,9,9093,1,-12.3043,3.60352,13.5092,6.95935,-0.82138
block_1,4843,9,9094,1,-12.3696,3.55453,13.5548,6.93292,-0.821437
block_1,4844,9,9095,1,-9.80328,10.3064,13.4936,20.4355,-0.741138
block_1,4845,9,9096,1,-9.89086,10.1593,13.5389,20.3562,-0.741192
block_1,4846,9,9097,1,-12.4351,3.50539,13.6004,6.9064,-0.821494
block_1,4847,9,9098,1,-12.5007,3.4561,13.646,6.8798,-0.821549
block_1,4848,9,9099,1,-6.34637,23.2256,13.048,47.1277,-0.583971
block_1,4849,9,9100,1,-6.43526,22.8805,13.0915,46.9418,-0.584012
block_1,4850,9,9101,1,-7.94501,16.6178,13.3696,33.7013,-0.661822
block_1,4851,9,9102,1,-8.0391,16.3712,13.4141,33.5685,-0.661864
block_1,4852,9,9103,1,-6.52576,22.5343,13.135,46.7553,-0.584043
block_1,4853,9,9104,1,-6.61788,22.1869,13.1785,46.5682,-0.58406
block_1,4854,9,9105,1,-8.13442,16.1238,13.4587,33.4352,-0.661895
block_1,4855,9,9106,1,-8.23096,15.8756,13.5032,33.3015,-0.661912
block_1,4856,9,9107,1,-9.9791,10.0117,13.5841,20.2767,-0.741242
block_1,4857,9,9108,1,-10.068,9.86361,13.6294,20.1969,-0.741285
block_1,4858,9,9109,1,-12.5664,3.40666,13.6916,6.85311,-0.821599
block_1,4859,9,9110,1,-12.6322,3.35706,13.7372,6.82634,-0.821643
block_1,4860,9,9111,1,-10.1575,9.71504,13.6746,20.1168,-0.741316
block_1,4861,9,9112,1,-10.2477,9.56599,13.7199,20.0365,-0.741333
block_1,4862,9,9113,1,-12.6982,3.30731,13.7828,6.79949,-0.821675
block_1,4863,9,9114,1,-12.7644,3.25741,13.8284,6.77256,-0.821691
block_1,4864,9,9115,1,-0.0111638,96.776,0.848521,205.335,-0.00213743
block_1,4865,9,9116,1,-0.0112709,95.2283,0.851338,204.502,-0.00213775
block_1,4866,9,9117,1,-0.0812506,90.4875,2.47649,192.045,-0.0118594
block_1,4867,9,9118,1,-0.0827383,89.0397,2.48469,191.266,-0.0118609
block_1,4868,9,9119,1,-0.0113845,93.6755,0.854156,203.666,-0.00213796
block_1,4869,9,9120,1,-0.0115049,92.1175,0.856975,202.827,-0.00213801
block_1,4870,9,9121,1,-0.0842824,87.5871,2.49288,190.484,-0.0118617
block_1,4871,9,9122,1,-0.0858859,86.1297,2.50108,189.699,-0.0118615
block_1,4872,9,9123,1,-0.22164,84.2095,3.99594,178.766,-0.030748
block_1,4873,9,9124,1,-0.2259,82.8615,4.00914,178.04,-0.0307509
block_1,4874,9,9125,1,-0.433059,77.941,5.40686,165.496,-0.0581661
block_1,4875,9,9126,1,-0.441486,76.6928,5.42471,164.824,-0.05817
block_1,4876,9,9127,1,-0.230315,81.5091,4.02235,177.312,-0.0307519
block_1,4877,9,9128,1,-0.234894,80.1522,4.03555,176.581,-0.0307506
block_1,4878,9,9129,1,-0.450215,75.4406,5.44257,164.15,-0.0581704
block_1,4879,9,9130,1,-0.459261,74.1843,5.46042,163.473,-0.0581659
block_1,4880,9,9131,1,-0.0116326,90.5545,0.859793,201.986,-0.00213784
block_1,4881,9,9132,1,-0.0117678,88.9864,0.86261,201.141,-0.00213738
block_1,4882,9,9133,1,-0.0875517,84.6675,2.50927,188.912,-0.0118602
block_1,4883,9,9134,1,-0.0892829,83.2006,2.51746,188.122,-0.0118573
block_1,4884,9,9135,1,-0.0119109,87.4131,0.865426,200.294,-0.00213656
block_1,4885,9,9136,1,-0.0120623,85.8347,0.868239,199.444,-0.00213528
block_1,4886,9,9137,1,-0.0910829,81.7289,2.52564,187.33,-0.0118523
block_1,4887,9,9138,1,-0.0929552,80.2524,2.53382,186.535,-0.0118448
block_1,4888,9,9139,1,-0.239645,78.7909,4.04876,175.848,-0.0307459
block_1,4889,9,9140,1,-0.244576,77.4252,4.06195,175.113,-0.0307371
block_1,4890,9,9141,1,-0.468641,72.9238,5.47826,162.795,-0.0581551
block_1,4891,9,9142,1,-0.47837,71.6593,5.49609,162.114,-0.0581363
block_1,4892,9,9143,1,-0.249697,76.055,4.07513,174.375,-0.0307229
block_1,4893,9,9144,1,-0.255016,74.6804,4.0883,173.635,-0.030702
block_1,4894,9,9145,1,-0.488466,70.3907,5.51391,161.431,-0.0581072
block_1,4895,9,9146,1,-0.498949,69.118,5.5317,160.745,-0.0580654
block_1,4896,9,9147,1,-0.717246,71.6814,6.70926,152.235,-0.0934777
block_1,4897,9,9148,1,-0.731235,70.5331,6.7314,151.617,-0.0934817
block_1,4898,9,9149,1,-1.07735,65.43,7.90313,138.982,-0.136047
block_1,4899,9,9150,1,-1.0983,64.3815,7.9292,138.417,-0.13605
block_1,4900,9,9151,1,-0.745719,69.3811,6.75353,150.996,-0.0934798
block_1,4901,9,9152,1,-0.760719,68.2252,6.77567,150.374,-0.0934701
block_1,4902,9,9153,1,-1.11997,63.3297,7.95526,137.851,-0.136045
block_1,4903,9,9154,1,-1.1424,62.2744,7.98131,137.283,-0.136027
block_1,4904,9,9155,1,-1.5185,59.186,8.98849,125.737,-0.185241
block_1,4905,9,9156,1,-1.54778,58.2374,9.01812,125.226,-0.185242
block_1,4906,9,9157,1,-2.04865,52.9487,9.96533,112.498,-0.240424
block_1,4907,9,9158,1,-2.08761,52.1,9.99817,112.041,-0.240422
block_1,4908,9,9159,1,-1.57806,57.2857,9.04774,124.713,-0.18523
block_1,4909,9,9160,1,-1.60936,56.3309,9.07736,124.199,-0.185203
block_1,4910,9,9161,1,-2.12783,51.2485,10.031,111.582,-0.240403
block_1,4911,9,9162,1,-2.16938,50.3942,10.0638,111.122,-0.240365
block_1,4912,9,9163,1,-0.776263,67.0657,6.79779,149.75,-0.09345
block_1,4913,9,9164,1,-0.792376,65.9023,6.8199,149.123,-0.0934169
block_1,4914,9,9165,1,-1.16562,61.2156,8.00735,136.713,-0.135995
block_1,4915,9,9166,1,-1.18968,60.1534,8.03337,136.141,-0.135943
block_1,4916,9,9167,1,-0.809087,64.7352,6.84198,148.495,-0.0933673
block_1,4917,9,9168,1,-0.826423,63.5644,6.86403,147.864,-0.0932972
block_1,4918,9,9169,1,-1.2146,59.0879,8.05937,135.567,-0.135868
block_1,4919,9,9170,1,-1.24044,58.0188,8.08532,134.991,-0.135763
block_1,4920,9,9171,1,-1.64173,55.373,9.10695,123.683,-0.185156
block_1,4921,9,9172,1,-1.67523,54.412,9.13653,123.166,-0.185082
block_1,4922,9,9173,1,-2.21229,49.5371,10.0966,110.661,-0.2403
block_1,4923,9,9174,1,-2.25664,48.6772,10.1294,110.198,-0.240202
block_1,4924,9,9175,1,-1.70991,53.4479,9.16607,122.647,-0.184977
block_1,4925,9,9176,1,-1.74582,52.4807,9.19558,122.126,-0.184832
block_1,4926,9,9177,1,-2.30247,47.8146,10.1621,109.733,-0.240064
block_1,4927,9,9178,1,-2.34987,46.9492,10.1948,109.267,-0.239875
block_1,4928,9,9179,1,-0.0122225,84.2513,0.871047,198.592,-0.00213341
block_1,4929,9,9180,1,-0.0123918,82.6628,0.87385,197.737,-0.00213083
block_1,4930,9,9181,1,-0.0949035,78.7712,2.54198,185.737,-0.0118341
block_1,4931,9,9182,1,-0.0969316,77.2853,2.55012,184.937,-0.0118195
block_1,4932,9,9183,1,-0.0125707,81.0691,0.876646,196.879,-0.00212736
block_1,4933,9,9184,1,-0.0127596,79.4705,0.879431,196.018,-0.00212283
block_1,4934,9,9185,1,-0.0990435,75.7946,2.55824,184.135,-0.0118
block_1,4935,9,9186,1,-0.101243,74.2993,2.56633,183.33,-0.0117748
block_1,4936,9,9187,1,-0.260545,73.3015,4.10144,172.893,-0.0306728
block_1,4937,9,9188,1,-0.266293,71.9181,4.11455,172.148,-0.0306334
block_1,4938,9,9189,1,-0.509835,67.8412,5.54946,160.058,-0.0580078
block_1,4939,9,9190,1,-0.521147,66.5604,5.56717,159.368,-0.057931
block_1,4940,9,9191,1,-0.272272,70.5303,4.12762,171.401,-0.0305816
block_1,4941,9,9192,1,-0.278493,69.1382,4.14064,170.651,-0.0305148
block_1,4942,9,9193,1,-0.532904,65.2755,5.58483,158.676,-0.0578308
block_1,4943,9,9194,1,-0.54513,63.9866,5.60242,157.982,-0.0577026
block_1,4944,9,9195,1,-0.012959,77.8668,0.882203,195.155,-0.002117
block_1,4945,9,9196,1,-0.0131694,76.2582,0.884958,194.289,-0.00210964
block_1,4946,9,9197,1,-0.103536,72.7992,2.57438,182.522,-0.0117426
block_1,4947,9,9198,1,-0.105925,71.2946,2.58238,181.712,-0.011702
block_1,4948,9,9199,1,-0.0133913,74.6445,0.887692,193.42,-0.00210045
block_1,4949,9,9200,1,-0.0136251,73.026,0.8904,192.548,-0.0020891
block_1,4950,9,9201,1,-0.108416,69.7853,2.59031,180.899,-0.0116516
block_1,4951,9,9202,1,-0.111014,68.2715,2.59817,180.084,-0.0115896
block_1,4952,9,9203,1,-0.284969,67.7418,4.1536,169.899,-0.0304301
block_1,4953,9,9204,1,-0.291711,66.341,4.16647,169.145,-0.030324
block_1,4954,9,9205,1,-0.557846,62.6937,5.61992,157.286,-0.0575407
block_1,4955,9,9206,1,-0.571077,61.3968,5.6373,156.588,-0.0573392
block_1,4956,9,9207,1,-0.298733,64.936,4.17924,168.388,-0.0301927
block_1,4957,9,9208,1,-0.306049,63.5267,4.19189,167.629,-0.0300318
block_1,4958,9,9209,1,-0.584848,60.0959,5.65456,155.887,-0.0570907
block_1,4959,9,9210,1,-0.599185,58.7912,5.67164,155.185,-0.0567874
block_1,4960,9,9211,1,-0.844416,62.3898,6.88604,147.232,-0.0932019
block_1,4961,9,9212,1,-0.863098,61.2114,6.908,146.597,-0.093076
block_1,4962,9,9213,1,-1.26723,56.9464,8.11123,134.414,-0.135622
block_1,4963,9,9214,1,-1.29503,55.8706,8.13707,133.835,-0.135437
block_1,4964,9,9215,1,-0.882502,60.0294,6.92989,145.961,-0.0929129
block_1,4965,9,9216,1,-0.902662,58.8437,6.95169,145.322,-0.0927053
block_1,4966,9,9217,1,-1.32387,54.7913,8.16284,133.254,-0.135199
block_1,4967,9,9218,1,-1.3538,53.7087,8.1885,132.671,-0.134897
block_1,4968,9,9219,1,-1.78301,51.5104,9.22503,121.604,-0.184639
block_1,4969,9,9220,1,-1.82154,50.537,9.2544,121.079,-0.184386
block_1,4970,9,9221,1,-2.39888,46.0811,10.2275,108.8,-0.239625
block_1,4971,9,9222,1,-2.44958,45.2102,10.26,108.331,-0.239301
block_1,4972,9,9223,1,-1.86147,49.5606,9.28369,120.554,-0.184064
block_1,4973,9,9224,1,-1.90287,48.5811,9.31287,120.026,-0.183657
block_1,4974,9,9225,1,-2.50204,44.3365,10.2925,107.86,-0.238888
block_1,4975,9,9226,1,-2.55632,43.46,10.3248,107.389,-0.238369
block_1,4976,9,9227,1,-0.923615,57.6542,6.97338,144.682,-0.0924448
block_1,4977,9,9228,1,-0.9454,56.4611,6.99493,144.04,-0.0921215
block_1,4978,9,9229,1,-1.38488,52.6228,8.21403,132.086,-0.13452
block_1,4979,9,9230,1,-1.41716,51.5334,8.23941,131.499,-0.134054
block_1,4980,9,9231,1,-0.968054,55.2644,7.01632,143.395,-0.0917246
block_1,4981,9,9232,1,-0.99162,54.0641,7.03751,142.749,-0.0912415
block_1,4982,9,9233,1,-1.45069,50.4408,8.26461,130.911,-0.133483
block_1,4983,9,9234,1,-1.48553,49.3448,8.28958,130.321,-0.132791
block_1,4984,9,9235,1,-1.94579,47.5985,9.34191,119.497,-0.18315
block_1,4985,9,9236,1,-1.9903,46.6129,9.37079,118.967,-0.182526
block_1,4986,9,9237,1,-2.61251,42.5808,10.3571,106.915,-0.237724
block_1,4987,9,9238,1,-2.67067,41.6989,10.3891,106.441,-0.236933
block_1,4988,9,9239,1,-2.03647,45.6242,9.39946,118.434,-0.181764
block_1,4989,9,9240,1,-2.08437,44.6325,9.42789,117.9,-0.180841
block_1,4990,9,9241,1,-2.73088,40.8142,10.4209,105.964,-0.235969
block_1,4991,9,9242,1,-2.79322,39.9268,10.4525,105.487,-0.234805
block_1,4992,9,9243,1,-2.67975,46.7175,10.8337,99.2652,-0.300965
block_1,4993,9,9244,1,-2.72962,45.9686,10.8693,98.8619,-0.300958
block_1,4994,9,9245,1,-3.42953,40.4916,11.5935,86.0378,-0.36623
block_1,4995,9,9246,1,-3.4913,39.8425,11.6317,85.6883,-0.366218
block_1,4996,9,9247,1,-2.78103,45.2172,10.905,98.4573,-0.300931
block_1,4997,9,9248,1,-2.83403,44.4634,10.9407,98.0514,-0.30088
block_1,4998,9,9249,1,-3.55485,39.1913,11.6698,85.3376,-0.366183
block_1,4999,9,9250,1,-3.62022,38.538,11.708,84.9858,-0.366118
block_1,5000,9,9251,1,-4.32391,34.2702,12.2448,72.8151,-0.435588
block_1,5001,9,9252,1,-4.39808,33.721,12.2851,72.5193,-0.435571
block_1,5002,9,9253,1,-5.40036,28.0528,12.7876,59.5962,-0.508408
block_1,5003,9,9254,1,-5.4864,27.6033,12.8297,59.3541,-0.508386
block_1,5004,9,9255,1,-4.47417,33.1699,12.3254,72.2225,-0.435528
block_1,5005,9,9256,1,-4.55223,32.6171,12.3657,71.9248,-0.43545
block_1,5006,9,9257,1,-5.57436,27.1524,12.8718,59.1113,-0.508334
block_1,5007,9,9258,1,-5.66428,26.7,12.9138,58.8677,-0.508244
block_1,5008,9,9259,1,-2.88869,43.7072,10.9763,97.6441,-0.300797
block_1,5009,9,9260,1,-2.94508,42.9485,11.0119,97.2356,-0.300673
block_1,5010,9,9261,1,-3.6875,37.8825,11.7461,84.6328,-0.366016
block_1,5011,9,9262,1,-3.75673,37.225,11.7842,84.2787,-0.365866
block_1,5012,9,9263,1,-3.00325,42.1873,11.0475,96.8257,-0.3005
block_1,5013,9,9264,1,-3.06329,41.4237,11.0831,96.4146,-0.300265
block_1,5014,9,9265,1,-3.828,36.5653,11.8223,83.9235,-0.365658
block_1,5015,9,9266,1,-3.90136,35.9035,11.8603,83.5672,-0.365378
block_1,5016,9,9267,1,-4.63233,32.0624,12.4059,71.6261,-0.435329
block_1,5017,9,9268,1,-4.71452,31.506,12.4462,71.3265,-0.435154
block_1,5018,9,9269,1,-5.75621,26.2462,12.9559,58.6233,-0.508106
block_1,5019,9,9270,1,-5.8502,25.7909,12.9979,58.3781,-0.507908
block_1,5020,9,9271,1,-4.79887,30.9478,12.4864,71.0259,-0.434912
block_1,5021,9,9272,1,-4.88542,30.3877,12.5265,70.7244,-0.434588
block_1,5022,9,9273,1,-5.94627,25.3341,13.0399,58.1322,-0.507635
block_1,5023,9,9274,1,-6.04447,24.8758,13.0818,57.8854,-0.507272
block_1,5024,9,9275,1,-6.71165,21.8385,13.222,46.3805,-0.584058
block_1,5025,9,9276,1,-6.80711,21.4888,13.2655,46.1922,-0.584032
block_1,5026,9,9277,1,-8.32874,15.6266,13.5478,33.1673,-0.661909
block_1,5027,9,9278,1,-8.42777,15.3768,13.5923,33.0328,-0.661879
block_1,5028,9,9279,1,-6.90428,21.1381,13.3089,46.0033,-0.583973
block_1,5029,9,9280,1,-7.00318,20.7862,13.3524,45.8138,-0.583872
block_1,5030,9,9281,1,-8.52805,15.1261,13.6369,32.8978,-0.661814
block_1,5031,9,9282,1,-8.62959,14.8747,13.6814,32.7623,-0.661705
block_1,5032,9,9283,1,-10.3386,9.41646,13.7651,19.9559,-0.741328
block_1,5033,9,9284,1,-10.4301,9.26645,13.8104,19.8751,-0.741296
block_1,5034,9,9285,1,-12.8306,3.20736,13.874,6.74555,-0.821686
block_1,5035,9,9286,1,-12.897,3.15715,13.9196,6.71845,-0.821653
block_1,5036,9,9287,1,-10.5222,9.11596,13.8557,19.794,-0.741227
block_1,5037,9,9288,1,-10.615,8.96498,13.9009,19.7127,-0.741112
block_1,5038,9,9289,1,-12.9636,3.10679,13.9652,6.69129,-0.821582
block_1,5039,9,9290,1,-13.0302,3.05628,14.0108,6.66404,-0.821465
block_1,5040,9,9291,1,-7.10383,20.4331,13.3959,45.6237,-0.583719
block_1,5041,9,9292,1,-7.20626,20.0789,13.4393,45.4329,-0.583501
block_1,5042,9,9293,1,-8.73239,14.6225,13.726,32.6265,-0.66154
block_1,5043,9,9294,1,-8.83645,14.3694,13.7705,32.4902,-0.661306
block_1,5044,9,9295,1,-7.31048,19.7236,13.4827,45.2416,-0.583202
block_1,5045,9,9296,1,-7.41652,19.3671,13.5261,45.0497,-0.582806
block_1,5046,9,9297,1,-8.94178,14.1155,13.815,32.3535,-0.660986
block_1,5047,9,9298,1,-9.04837,13.8607,13.8595,32.2164,-0.660563
block_1,5048,9,9299,1,-10.7084,8.81352,13.9461,19.6311,-0.740939
block_1,5049,9,9300,1,-10.8024,8.66156,13.9914,19.5492,-0.740694
block_1,5050,9,9301,1,-13.0969,3.00559,14.0564,6.63673,-0.821288
block_1,5051,9,9302,1,-13.1638,2.95475,14.102,6.60934,-0.821037
block_1,5052,9,9303,1,-10.8971,8.5091,14.0366,19.4672,-0.74036
block_1,5053,9,9304,1,-10.9923,8.35612,14.0818,19.3849,-0.739918
block_1,5054,9,9305,1,-13.2307,2.90372,14.1476,6.58189,-0.820696
block_1,5055,9,9306,1,-13.2978,2.85251,14.1932,6.55437,-0.820245
block_1,5056,9,9307,1,-3.12525,40.6577,11.1185,96.0021,-0.299957
block_1,5057,9,9308,1,-3.18922,39.8892,11.1539,95.5884,-0.299558
block_1,5058,9,9309,1,-3.97688,35.2395,11.8983,83.2097,-0.365011
block_1,5059,9,9310,1,-4.05464,34.5734,11.9362,82.8511,-0.364539
block_1,5060,9,9311,1,-3.25526,39.1183,11.1892,95.1733,-0.299052
block_1,5061,9,9312,1,-3.32345,38.3449,11.2244,94.757,-0.298419
block_1,5062,9,9313,1,-4.13471,33.9052,11.974,82.4914,-0.363942
block_1,5063,9,9314,1,-4.21714,33.2349,12.0117,82.1306,-0.363196
block_1,5064,9,9315,1,-4.97423,29.8259,12.5667,70.4219,-0.434166
block_1,5065,9,9316,1,-5.06537,29.2622,12.6067,70.1185,-0.433625
block_1,5066,9,9317,1,-6.14485,24.4161,13.1237,57.6379,-0.5068
block_1,5067,9,9318,1,-6.24743,23.9548,13.1656,57.3897,-0.506196
block_1,5068,9,9319,1,-5.15889,28.6967,12.6467,69.8141,-0.432941
block_1,5069,9,9320,1,-5.25485,28.1294,12.6865,69.5088,-0.432089
block_1,5070,9,9321,1,-6.35225,23.4921,13.2073,57.1406,-0.505434
block_1,5071,9,9322,1,-6.45934,23.0278,13.249,56.8909,-0.504487
block_1,5072,9,9323,1,-3.39386,37.569,11.2595,94.3393,-0.297634
block_1,5073,9,9324,1,-3.46657,36.7907,11.2944,93.9204,-0.296673
block_1,5074,9,9325,1,-4.30202,32.5624,12.0492,81.7687,-0.362274
block_1,5075,9,9326,1,-4.3894,31.8877,12.0866,81.4056,-0.361147
block_1,5076,9,9327,1,-3.54167,36.01,11.329,93.5003,-0.295505
block_1,5077,9,9328,1,-3.61922,35.2268,11.3635,93.0788,-0.294097
block_1,5078,9,9329,1,-4.47937,31.2109,12.1238,81.0415,-0.35978
block_1,5079,9,9330,1,-4.57197,30.5319,12.1607,80.6763,-0.358136
block_1,5080,9,9331,1,-5.35329,27.5603,12.7262,69.2026,-0.431039
block_1,5081,9,9332,1,-5.45426,26.9893,12.7658,68.8954,-0.429756
block_1,5082,9,9333,1,-6.56874,22.562,13.2906,56.6403,-0.503321
block_1,5083,9,9334,1,-6.68046,22.0946,13.332,56.389,-0.501899
block_1,5084,9,9335,1,-5.55782,26.4163,12.8052,68.5873,-0.428203
block_1,5085,9,9336,1,-5.66401,25.8415,12.8444,68.2783,-0.426338
block_1,5086,9,9337,1,-6.79452,21.6256,13.3733,56.137,-0.50018
block_1,5087,9,9338,1,-6.91096,21.155,13.4144,55.8842,-0.498118
block_1,5088,9,9339,1,-7.52439,19.0094,13.5695,44.8572,-0.58229
block_1,5089,9,9340,1,-7.63409,18.6506,13.6128,44.6641,-0.581632
block_1,5090,9,9341,1,-9.15623,13.6052,13.9039,32.0789,-0.660014
block_1,5091,9,9342,1,-9.26534,13.3487,13.9483,31.9409,-0.659313
block_1,5092,9,9343,1,-7.74565,18.2905,13.656,44.4704,-0.580805
block_1,5093,9,9344,1,-7.85907,17.9293,13.6992,44.2761,-0.579776
block_1,5094,9,9345,1,-9.37569,13.0914,13.9927,31.8025,-0.658434
block_1,5095,9,9346,1,-9.48729,12.8332,14.037,31.6638,-0.657342
block_1,5096,9,9347,1,-11.0882,8.20263,14.127,19.3023,-0.739346
block_1,5097,9,9348,1,-11.1846,8.0486,14.1722,19.2195,-0.738616
block_1,5098,9,9349,1,-13.3649,2.80111,14.2388,6.52678,-0.81966
block_1,5099,9,9350,1,-13.4321,2.74949,14.2844,6.49914,-0.818916
block_1,5100,9,9351,1,-11.2816,7.89401,14.2173,19.1365,-0.737701
block_1,5101,9,9352,1,-11.3792,7.73885,14.2624,19.0532,-0.736565
block_1,5102,9,9353,1,-13.4994,2.69765,14.3299,6.47144,-0.817982
block_1,5103,9,9354,1,-13.5667,2.64554,14.3755,6.44368,-0.816824
block_1,5104,9,9355,1,-7.97435,17.5668,13.7423,44.0812,-0.578512
block_1,5105,9,9356,1,-8.09149,17.203,13.7852,43.8858,-0.576972
block_1,5106,9,9357,1,-9.6001,12.5741,14.0812,31.5246,-0.656001
block_1,5107,9,9358,1,-9.71412,12.314,14.1254,31.385,-0.654369
block_1,5108,9,9359,1,-8.21049,16.838,13.8281,43.6898,-0.575113
block_1,5109,9,9360,1,-8.33134,16.4716,13.8708,43.4932,-0.572884
block_1,5110,9,9361,1,-9.82932,12.0529,14.1695,31.2451,-0.652399
block_1,5111,9,9362,1,-9.9457,11.7908,14.2134,31.1047,-0.65004
block_1,5112,9,9363,1,-11.4773,7.58308,14.3075,18.9697,-0.735171
block_1,5113,9,9364,1,-11.576,7.42668,14.3525,18.886,-0.733475
block_1,5114,9,9365,1,-13.634,2.59316,14.421,6.41586,-0.815403
block_1,5115,9,9366,1,-13.7014,2.54046,14.4665,6.388,-0.813675
block_1,5116,9,9367,1,-11.6751,7.2696,14.3975,18.8021,-0.73143
block_1,5117,9,9368,1,-11.7747,7.1118,14.4424,18.7179,-0.728983
block_1,5118,9,9369,1,-13.7688,2.48741,14.512,6.36008,-0.811592
block_1,5119,9,9370,1,-13.8362,2.43395,14.5575,6.33211,-0.809099
block_1,5120,9,9371,1,-0.0138714,71.4027,0.893077,191.674,-0.00207522
block_1,5121,9,9372,1,-0.0141307,69.7746,0.895715,190.797,-0.00205838
block_1,5122,9,9373,1,-0.113723,66.7531,2.60594,179.266,-0.011514
block_1,5123,9,9374,1,-0.11655,65.2304,2.61359,178.446,-0.0114227
block_1,5124,9,9375,1,-0.0144035,68.1419,0.898306,189.918,-0.00203813
block_1,5125,9,9376,1,-0.0146905,66.5046,0.900841,189.036,-0.00201393
block_1,5126,9,9377,1,-0.1195,63.7034,2.62111,177.623,-0.0113131
block_1,5127,9,9378,1,-0.122578,62.1721,2.62847,176.798,-0.0111824
block_1,5128,9,9379,1,-0.313673,62.1133,4.20439,166.868,-0.0298364
block_1,5129,9,9380,1,-0.321619,60.6959,4.2167,166.105,-0.029601
block_1,5130,9,9381,1,-0.614115,57.4826,5.68853,154.48,-0.0564201
block_1,5131,9,9382,1,-0.629667,56.1702,5.70518,153.773,-0.0559789
block_1,5132,9,9383,1,-0.329904,59.2743,4.2288,165.339,-0.0293192
block_1,5133,9,9384,1,-0.338543,57.8489,4.24065,164.571,-0.0289844
block_1,5134,9,9385,1,-0.645871,54.8541,5.72154,153.064,-0.0554525
block_1,5135,9,9386,1,-0.662756,53.5343,5.73756,152.353,-0.0548286
block_1,5136,9,9387,1,-0.0149921,64.8629,0.90331,188.151,-0.00198521
block_1,5137,9,9388,1,-0.015309,63.2169,0.905701,187.264,-0.00195133
block_1,5138,9,9389,1,-0.12579,60.6367,2.63563,175.971,-0.0110277
block_1,5139,9,9390,1,-0.129144,59.0974,2.64257,175.141,-0.0108457
block_1,5140,9,9391,1,-0.0156417,61.5669,0.907999,186.374,-0.0019116
block_1,5141,9,9392,1,-0.0159908,59.9131,0.910189,185.482,-0.00186527
block_1,5142,9,9393,1,-0.132645,57.5543,2.64924,174.309,-0.0106327
block_1,5143,9,9394,1,-0.1363,56.0076,2.65561,173.475,-0.0103849
block_1,5144,9,9395,1,-0.347554,56.4196,4.25219,163.801,-0.0285891
block_1,5145,9,9396,1,-0.356953,54.9866,4.26337,163.028,-0.028125
block_1,5146,9,9397,1,-0.680356,52.2109,5.75319,151.64,-0.0540938
block_1,5147,9,9398,1,-0.698704,50.884,5.76836,150.925,-0.0532335
block_1,5148,9,9399,1,-0.36676,53.5501,4.27415,162.254,-0.0275834
block_1,5149,9,9400,1,-0.376994,52.1102,4.28444,161.477,-0.0269549
block_1,5150,9,9401,1,-0.717836,49.5538,5.78299,150.208,-0.052232
block_1,5151,9,9402,1,-0.737791,48.2204,5.797,149.489,-0.0510726
block_1,5152,9,9403,1,-1.01614,52.8602,7.05846,142.1,-0.0906584
block_1,5153,9,9404,1,-1.04166,51.6528,7.07912,141.45,-0.0899598
block_1,5154,9,9405,1,-1.52174,48.2455,8.31427,129.729,-0.131958
block_1,5155,9,9406,1,-1.55938,47.143,8.33865,129.135,-0.130962
block_1,5156,9,9407,1,-1.06822,50.4419,7.09945,140.798,-0.0891286
block_1,5157,9,9408,1,-1.09588,49.2276,7.11937,140.144,-0.0881459
block_1,5158,9,9409,1,-1.5985,46.0373,8.36264,128.54,-0.12978
block_1,5159,9,9410,1,-1.63919,44.9283,8.38619,127.943,-0.128385
block_1,5160,9,9411,1,-2.13407,43.6378,9.45603,117.365,-0.179734
block_1,5161,9,9412,1,-2.18565,42.6402,9.48383,116.828,-0.178413
block_1,5162,9,9413,1,-2.85777,39.0366,10.4838,105.008,-0.23341
block_1,5163,9,9414,1,-2.92461,38.1437,10.5147,104.527,-0.231751
block_1,5164,9,9415,1,-2.23918,41.6395,9.51122,116.289,-0.176849
block_1,5165,9,9416,1,-2.29474,40.6359,9.53813,115.749,-0.175008
block_1,5166,9,9417,1,-2.99383,37.248,10.5452,104.045,-0.229789
block_1,5167,9,9418,1,-3.0655,36.3496,10.5753,103.562,-0.227485
block_1,5168,9,9419,1,-1.12468,48.01,7.13882,139.488,-0.0869914
block_1,5169,9,9420,1,-1.15467,46.789,7.15773,138.83,-0.0856429
block_1,5170,9,9421,1,-1.6815,43.8163,8.40922,127.344,-0.126751
block_1,5171,9,9422,1,-1.72551,42.7011,8.43164,126.743,-0.124846
block_1,5172,9,9423,1,-1.18592,45.5649,7.176,138.17,-0.0840768
block_1,5173,9,9424,1,-1.21848,44.3377,7.19355,137.509,-0.0822683
block_1,5174,9,9425,1,-1.77128,41.5829,8.45337,126.141,-0.122639
block_1,5175,9,9426,1,-1.81892,40.4618,8.47429,125.537,-0.120096
block_1,5176,9,9427,1,-2.35241,39.6293,9.5645,115.207,-0.172855
block_1,5177,9,9428,1,-2.41228,38.6198,9.59023,114.664,-0.170351
block_1,5178,9,9429,1,-3.13971,35.4484,10.6047,103.077,-0.224794
block_1,5179,9,9430,1,-3.21656,34.5446,10.6336,102.591,-0.221671
block_1,5180,9,9431,1,-2.47444,37.6074,9.61522,114.119,-0.167455
block_1,5181,9,9432,1,-2.53898,36.5922,9.63938,113.573,-0.164126
block_1,5182,9,9433,1,-3.29614,33.6379,10.6617,102.103,-0.218068
block_1,5183,9,9434,1,-3.37855,32.7285,10.6889,101.615,-0.213934
block_1,5184,9,9435,1,-0.0163571,58.2557,0.912254,184.588,-0.00181154
block_1,5185,9,9436,1,-0.0167412,56.595,0.914175,183.691,-0.00174954
block_1,5186,9,9437,1,-0.140116,54.4575,2.66162,172.638,-0.0100981
block_1,5187,9,9438,1,-0.144101,52.9043,2.66722,171.8,-0.00976795
block_1,5188,9,9439,1,-0.0171438,54.9313,0.915928,182.793,-0.00167839
block_1,5189,9,9440,1,-0.0175657,53.2651,0.917492,181.892,-0.00159713
block_1,5190,9,9441,1,-0.148264,51.3483,2.67236,170.959,-0.00938993
block_1,5191,9,9442,1,-0.152612,49.7898,2.67695,170.117,-0.00895929
block_1,5192,9,9443,1,-0.387676,50.6671,4.29418,160.698,-0.0262294
block_1,5193,9,9444,1,-0.398828,49.221,4.30329,159.918,-0.0253964
block_1,5194,9,9445,1,-0.758608,46.8839,5.8103,148.768,-0.0497378
block_1,5195,9,9446,1,-0.780331,45.5444,5.82279,148.045,-0.0482092
block_1,5196,9,9447,1,-0.410473,47.7721,4.31168,159.135,-0.0244451
block_1,5197,9,9448,1,-0.422639,46.3207,4.31924,158.351,-0.0233644
block_1,5198,9,9449,1,-0.803007,44.2023,5.83435,147.321,-0.0464684
block_1,5199,9,9450,1,-0.826689,42.8575,5.84488,146.594,-0.0444965
block_1,5200,9,9451,1,-0.0180078,51.5967,0.918838,180.989,-0.00150481
block_1,5201,9,9452,1,-0.0184711,49.9268,0.919939,180.084,-0.00140044
block_1,5202,9,9453,1,-0.157155,48.2292,2.68095,169.272,-0.00847124
block_1,5203,9,9454,1,-0.161904,46.6669,2.68426,168.426,-0.00792098
block_1,5204,9,9455,1,-0.0189566,48.2558,0.920763,179.178,-0.00128304
block_1,5205,9,9456,1,-0.0194657,46.5844,0.921278,178.27,-0.00115166
block_1,5206,9,9457,1,-0.166871,45.1034,2.6868,167.578,-0.00730384
block_1,5207,9,9458,1,-0.172069,43.5391,2.68849,166.729,-0.0066154
block_1,5208,9,9459,1,-0.435353,44.8672,4.32589,157.565,-0.0221432
block_1,5209,9,9460,1,-0.448648,43.4118,4.33149,156.777,-0.0207707
block_1,5210,9,9461,1,-0.851434,41.5105,5.85423,145.866,-0.0422752
block_1,5211,9,9462,1,-0.877309,40.1614,5.86228,145.137,-0.0397873
block_1,5212,9,9463,1,-0.46256,41.9548,4.33595,155.988,-0.0192368
block_1,5213,9,9464,1,-0.477132,40.4968,4.33912,155.197,-0.0175322
block_1,5214,9,9465,1,-0.904389,38.8105,5.8689,144.406,-0.037017
block_1,5215,9,9466,1,-0.932762,37.4581,5.87392,143.673,-0.0339514
block_1,5216,9,9467,1,-1.25242,43.1075,7.21027,136.846,-0.0801913
block_1,5217,9,9468,1,-1.2878,41.8745,7.22604,136.181,-0.077819
block_1,5218,9,9469,1,-1.86849,39.3377,8.49431,124.932,-0.117183
block_1,5219,9,9470,1,-1.92009,38.2108,8.5133,124.325,-0.113864
block_1,5220,9,9471,1,-1.3247,40.6386,7.24074,135.514,-0.0751246
block_1,5221,9,9472,1,-1.3632,39.4002,7.25425,134.846,-0.0720816
block_1,5222,9,9473,1,-1.97382,37.0811,8.53113,123.716,-0.110105
block_1,5223,9,9474,1,-2.02981,35.9487,8.54766,123.106,-0.105871
block_1,5224,9,9475,1,-2.606,35.5741,9.66259,113.025,-0.160321
block_1,5225,9,9476,1,-2.67562,34.5532,9.68473,112.475,-0.155997
block_1,5226,9,9477,1,-3.46389,31.8163,10.7152,101.124,-0.209219
block_1,5227,9,9478,1,-3.55228,30.9014,10.7404,100.633,-0.203873
block_1,5228,9,9479,1,-2.74796,33.5295,9.70567,111.925,-0.151111
block_1,5229,9,9480,1,-2.82315,32.5029,9.72528,111.373,-0.145626
block_1,5230,9,9481,1,-3.64385,29.9836,10.7645,100.14,-0.197849
block_1,5231,9,9482,1,-3.73874,29.0629,10.7872,99.6458,-0.191104
block_1,5232,9,9483,1,-1.4034,38.1593,7.26642,134.176,-0.0686646
block_1,5233,9,9484,1,-1.4454,36.9161,7.2771,133.505,-0.0648507
block_1,5234,9,9485,1,-2.08816,34.8137,8.56275,122.494,-0.101132
block_1,5235,9,9486,1,-2.14905,33.6761,8.57626,121.881,-0.0958615
block_1,5236,9,9487,1,-1.48933,35.6708,7.28615,132.832,-0.0606204
block_1,5237,9,9488,1,-1.53534,34.4234,7.29341,132.158,-0.0559598
block_1,5238,9,9489,1,-2.21263,32.536,8.58803,121.266,-0.090039
block_1,5239,9,9490,1,-2.27911,31.3935,8.59793,120.65,-0.0836533
block_1,5240,9,9491,1,-2.90134,31.4736,9.74341,110.819,-0.139505
block_1,5241,9,9492,1,-2.98273,30.4416,9.75993,110.264,-0.132721
block_1,5242,9,9493,1,-3.83712,28.1393,10.8085,99.1502,-0.183601
block_1,5243,9,9494,1,-3.93919,27.2127,10.8282,98.6533,-0.175316
block_1,5244,9,9495,1,-3.06751,29.4067,9.77471,109.707,-0.125258
block_1,5245,9,9496,1,-3.15595,28.3689,9.7876,109.149,-0.117111
block_1,5246,9,9497,1,-4.04519,26.2831,10.8462,98.155,-0.166237
block_1,5247,9,9498,1,-4.15539,25.3502,10.8624,97.6552,-0.156375
block_1,5248,9,9499,1,-3.6993,34.4411,11.3976,92.6561,-0.292414
block_1,5249,9,9500,1,-3.78199,33.6529,11.4314,92.2322,-0.290414
block_1,5250,9,9501,1,-4.66729,29.8507,12.1974,80.31,-0.356173
block_1,5251,9,9502,1,-4.76538,29.1672,12.2338,79.9426,-0.353844
block_1,5252,9,9503,1,-3.86738,32.8622,11.4647,91.807,-0.288054
block_1,5253,9,9504,1,-3.95554,32.069,11.4976,91.3806,-0.285288
block_1,5254,9,9505,1,-4.86631,28.4815,12.2697,79.5741,-0.351101
block_1,5255,9,9506,1,-4.97014,27.7935,12.3053,79.2046,-0.34789
block_1,5256,9,9507,1,-5.77288,25.2648,12.8833,67.9684,-0.424114
block_1,5257,9,9508,1,-5.88445,24.6861,12.922,67.6576,-0.421481
block_1,5258,9,9509,1,-7.02977,20.6827,13.4553,55.6306,-0.495662
block_1,5259,9,9510,1,-7.15097,20.2088,13.4959,55.3764,-0.492757
block_1,5260,9,9511,1,-5.99878,24.1053,12.9602,67.3458,-0.418382
block_1,5261,9,9512,1,-6.11589,23.5225,12.9981,67.0331,-0.414759
block_1,5262,9,9513,1,-7.27458,19.7331,13.5362,55.1213,-0.489343
block_1,5263,9,9514,1,-7.40059,19.2555,13.5762,54.8656,-0.485356
block_1,5264,9,9515,1,-4.04654,31.2732,11.53,90.9529,-0.282063
block_1,5265,9,9516,1,-4.14048,30.4749,11.5617,90.524,-0.278326
block_1,5266,9,9517,1,-5.07693,27.1031,12.3403,78.834,-0.344152
block_1,5267,9,9518,1,-5.18674,26.4104,12.3747,78.4623,-0.339829
block_1,5268,9,9519,1,-4.23744,29.674,11.5927,90.0939,-0.274023
block_1,5269,9,9520,1,-4.33751,28.8704,11.6229,89.6626,-0.269095
block_1,5270,9,9521,1,-5.29964,25.7152,12.4084,78.0895,-0.334859
block_1,5271,9,9522,1,-5.4157,25.0175,12.4414,77.7157,-0.329178
block_1,5272,9,9523,1,-6.23582,22.9376,13.0355,66.7196,-0.410549
block_1,5273,9,9524,1,-6.35861,22.3505,13.0724,66.4051,-0.405687
block_1,5274,9,9525,1,-7.52902,18.7761,13.6157,54.609,-0.480729
block_1,5275,9,9526,1,-7.65986,18.2946,13.6548,54.3518,-0.475392
block_1,5276,9,9527,1,-6.48429,21.7611,13.1087,66.0897,-0.400105
block_1,5277,9,9528,1,-6.61289,21.1693,13.1442,65.7734,-0.393735
block_1,5278,9,9529,1,-7.79314,17.8111,13.6934,54.0937,-0.469273
block_1,5279,9,9530,1,-7.92885,17.3254,13.7314,53.8349,-0.462302
block_1,5280,9,9531,1,-8.45403,16.1039,13.9133,43.296,-0.570232
block_1,5281,9,9532,1,-8.57855,15.7347,13.9556,43.0983,-0.567099
block_1,5282,9,9533,1,-10.0632,11.5276,14.2572,30.9639,-0.647236
block_1,5283,9,9534,1,-10.1818,11.2633,14.3009,30.8227,-0.643926
block_1,5284,9,9535,1,-8.70489,15.3641,13.9976,42.9,-0.56342
block_1,5285,9,9536,1,-8.83302,14.9918,14.0394,42.7011,-0.559129
block_1,5286,9,9537,1,-10.3016,10.9978,14.3444,30.6811,-0.640042
block_1,5287,9,9538,1,-10.4224,10.7309,14.3877,30.5391,-0.635515
block_1,5288,9,9539,1,-11.8748,6.95322,14.4872,18.6335,-0.726075
block_1,5289,9,9540,1,-11.9753,6.79381,14.5319,18.5489,-0.722643
block_1,5290,9,9541,1,-13.9037,2.38003,14.603,6.3041,-0.806139
block_1,5291,9,9542,1,-13.9711,2.32558,14.6484,6.27603,-0.802647
block_1,5292,9,9543,1,-12.0762,6.63347,14.5765,18.464,-0.71862
block_1,5293,9,9544,1,-12.1775,6.47213,14.621,18.3789,-0.713934
block_1,5294,9,9545,1,-14.0385,2.27053,14.6938,6.2479,-0.798555
block_1,5295,9,9546,1,-14.1058,2.21478,14.7391,6.21971,-0.79379
block_1,5296,9,9547,1,-8.96294,14.618,14.0808,42.5017,-0.554154
block_1,5297,9,9548,1,-9.09463,14.2423,14.1219,42.3016,-0.548422
block_1,5298,9,9549,1,-10.5442,10.4627,14.4307,30.3967,-0.630272
block_1,5299,9,9550,1,-10.6671,10.193,14.4735,30.2539,-0.624236
block_1,5300,9,9551,1,-9.22808,13.8648,14.1626,42.1009,-0.541859
block_1,5301,9,9552,1,-9.36329,13.4853,14.2028,41.8997,-0.534392
block_1,5302,9,9553,1,-10.791,9.92165,14.516,30.1106,-0.617333
block_1,5303,9,9554,1,-10.916,9.64855,14.5581,29.9669,-0.609488
block_1,5304,9,9555,1,-12.2792,6.30969,14.6653,18.2936,-0.70851
block_1,5305,9,9556,1,-12.3813,6.14602,14.7095,18.208,-0.702272
block_1,5306,9,9557,1,-14.1732,2.15824,14.7844,6.19144,-0.788279
block_1,5307,9,9558,1,-14.2406,2.10078,14.8297,6.16309,-0.781943
block_1,5308,9,9559,1,-12.4838,5.98101,14.7535,18.1221,-0.695143
block_1,5309,9,9560,1,-12.5867,5.81449,14.7973,18.0359,-0.687049
block_1,5310,9,9561,1,-14.308,2.04226,14.8749,6.13464,-0.774709
block_1,5311,9,9562,1,-14.3755,1.98255,14.9201,6.10606,-0.766502
block_1,5312,9,9563,1,-4.44079,28.0642,11.6522,89.23,-0.263487
block_1,5313,9,9564,1,-4.54737,27.2551,11.6804,88.7962,-0.257142
block_1,5314,9,9565,1,-5.53498,24.3172,12.4735,77.3408,-0.322724
block_1,5315,9,9566,1,-5.65758,23.6142,12.5047,76.9648,-0.315439
block_1,5316,9,9567,1,-4.65739,26.4433,11.7075,88.3612,-0.25001
block_1,5317,9,9568,1,-4.77097,25.6285,11.7334,87.925,-0.242046
block_1,5318,9,9569,1,-5.7836,22.9084,12.5348,76.5876,-0.307269
block_1,5319,9,9570,1,-5.91315,22.1996,12.5638,76.2094,-0.29817
block_1,5320,9,9571,1,-6.74447,20.5751,13.1791,65.4561,-0.386513
block_1,5321,9,9572,1,-6.87909,19.9782,13.2131,65.1379,-0.378376
block_1,5322,9,9573,1,-8.06702,16.8374,13.7688,53.5753,-0.454411
block_1,5323,9,9574,1,-8.20768,16.3469,13.8054,53.3149,-0.445537
block_1,5324,9,9575,1,-7.01681,19.3786,13.2461,64.8187,-0.369271
block_1,5325,9,9576,1,-7.15774,18.7761,13.2782,64.4984,-0.359157
block_1,5326,9,9577,1,-8.3509,15.8537,13.8413,53.0536,-0.435629
block_1,5327,9,9578,1,-8.49675,15.3577,13.8763,52.7914,-0.424648
block_1,5328,9,9579,1,-4.88829,24.8107,11.7579,87.4875,-0.233216
block_1,5329,9,9580,1,-5.00954,23.9898,11.7809,87.0487,-0.223498
block_1,5330,9,9581,1,-6.04638,21.4878,12.5915,75.83,-0.288111
block_1,5331,9,9582,1,-6.18347,20.7727,12.6179,75.4494,-0.277081
block_1,5332,9,9583,1,-5.13497,23.1655,11.8023,86.6085,-0.212895
block_1,5333,9,9584,1,-5.26486,22.3378,11.8221,86.167,-0.201432
block_1,5334,9,9585,1,-6.32468,20.0542,12.6429,75.0675,-0.265095
block_1,5335,9,9586,1,-6.47029,19.332,12.6665,74.6842,-0.252199
block_1,5336,9,9587,1,-7.302,18.1705,13.3091,64.1771,-0.348008
block_1,5337,9,9588,1,-7.44977,17.5616,13.339,63.8547,-0.335824
block_1,5338,9,9589,1,-8.64535,14.8587,13.9105,52.5283,-0.412577
block_1,5339,9,9590,1,-8.79685,14.3564,13.9437,52.2642,-0.39943
block_1,5340,9,9591,1,-7.60126,16.9492,13.3676,63.5311,-0.322637
block_1,5341,9,9592,1,-7.75679,16.333,13.395,63.2062,-0.308519
block_1,5342,9,9593,1,-8.95148,13.8505,13.9759,51.9989,-0.385254
block_1,5343,9,9594,1,-9.10953,13.3409,14.0072,51.7325,-0.370151
block_1,5344,9,9595,1,-9.50027,13.1037,14.2424,41.6977,-0.525951
block_1,5345,9,9596,1,-9.63904,12.7197,14.2816,41.4951,-0.516476
block_1,5346,9,9597,1,-11.0419,9.37352,14.5999,29.8227,-0.600633
block_1,5347,9,9598,1,-11.169,9.09639,14.6413,29.6779,-0.590707
block_1,5348,9,9599,1,-9.77965,12.3333,14.3201,41.2918,-0.505916
block_1,5349,9,9600,1,-9.92217,11.9441,14.358,41.0877,-0.494239
block_1,5350,9,9601,1,-11.2971,8.81695,14.6822,29.5326,-0.579664
block_1,5351,9,9602,1,-11.4265,8.53499,14.7227,29.3867,-0.567478
block_1,5352,9,9603,1,-12.6901,5.64631,14.8409,17.9494,-0.677924
block_1,5353,9,9604,1,-12.7939,5.47627,14.8843,17.8626,-0.667709
block_1,5354,9,9605,1,-14.4431,1.92146,14.9652,6.07732,-0.757257
block_1,5355,9,9606,1,-14.5109,1.85881,15.0102,6.04839,-0.74692
block_1,5356,9,9607,1,-12.8982,5.30418,14.9274,17.7753,-0.656362
block_1,5357,9,9608,1,-13.0032,5.12979,14.9703,17.6876,-0.643864
block_1,5358,9,9609,1,-14.579,1.7944,15.0553,6.01922,-0.735454
block_1,5359,9,9610,1,-14.6475,1.72799,15.1003,5.98974,-0.722844
block_1,5360,9,9611,1,-10.0667,11.5521,14.3951,40.8828,-0.481437
block_1,5361,9,9612,1,-10.2135,11.1568,14.4316,40.677,-0.467537
block_1,5362,9,9613,1,-11.5572,8.25027,14.7628,29.2401,-0.554151
block_1,5363,9,9614,1,-11.6894,7.96252,14.8024,29.0927,-0.539722
block_1,5364,9,9615,1,-10.3626,10.758,14.4674,40.4702,-0.452605
block_1,5365,9,9616,1,-10.5145,10.3555,14.5025,40.2623,-0.43677
block_1,5366,9,9617,1,-11.8233,7.67146,14.8415,28.9444,-0.524277
block_1,5367,9,9618,1,-11.9593,7.37678,14.8803,28.7952,-0.507969
block_1,5368,9,9619,1,-13.1091,4.95288,15.013,17.5993,-0.630225
block_1,5369,9,9620,1,-13.2159,4.77317,15.0555,17.5104,-0.615497
block_1,5370,9,9621,1,-14.7165,1.65934,15.1453,5.9599,-0.709109
block_1,5371,9,9622,1,-14.7863,1.5882,15.1904,5.92959,-0.694313
block_1,5372,9,9623,1,-13.3239,4.59038,15.0978,17.4208,-0.599785
block_1,5373,9,9624,1,-13.4335,4.40421,15.1399,17.3303,-0.58326
block_1,5374,9,9625,1,-14.857,1.51428,15.2355,5.89872,-0.678574
block_1,5375,9,9626,1,-14.9291,1.43731,15.2807,5.86715,-0.662083
block_1,5376,9,9627,1,-0.0199997,44.9132,0.921446,177.361,-0.00100539
block_1,5377,9,9628,1,-0.0205603,43.2432,0.921231,176.451,-0.000843408
block_1,5378,9,9629,1,-0.177512,41.9747,2.68923,165.878,-0.00585166
block_1,5379,9,9630,1,-0.183219,40.4107,2.68894,165.027,-0.0050092
block_1,5380,9,9631,1,-0.0211496,41.5751,0.920593,175.54,-0.000664988
block_1,5381,9,9632,1,-0.02177,39.9099,0.91949,174.629,-0.000469564
block_1,5382,9,9633,1,-0.189211,38.8479,2.6875,164.174,-0.00408545
block_1,5383,9,9634,1,-0.195513,37.2869,2.68482,163.321,-0.00307898
block_1,5384,9,9635,1,-0.492412,39.0381,4.34089,154.405,-0.0156493
block_1,5385,9,9636,1,-0.508459,37.5792,4.34112,153.611,-0.0135824
block_1,5386,9,9637,1,-0.962532,36.1044,5.87721,142.939,-0.030581
block_1,5387,9,9638,1,-0.993824,34.7497,5.87862,142.204,-0.0269016
block_1,5388,9,9639,1,-0.525343,36.1205,4.33967,152.817,-0.0113289
block_1,5389,9,9640,1,-0.543149,34.6625,4.33644,152.021,-0.00888984
block_1,5390,9,9641,1,-1.02679,33.3943,5.87802,141.468,-0.0229156
block_1,5391,9,9642,1,-1.06162,32.0386,5.87528,140.73,-0.0186341
block_1,5392,9,9643,1,-0.0224242,38.2486,0.917881,173.717,-0.000256766
block_1,5393,9,9644,1,-0.0231158,36.5923,0.915723,172.805,-2.64788e-05
block_1,5394,9,9645,1,-0.202155,35.7285,2.68079,162.467,-0.0019898
block_1,5395,9,9646,1,-0.209176,34.1735,2.67534,161.612,-0.000819806
block_1,5396,9,9647,1,-0.0238489,34.9423,0.912973,171.893,0.000221098
block_1,5397,9,9648,1,-0.0246286,33.2999,0.909591,170.982,0.000485363
block_1,5398,9,9649,1,-0.216624,32.6227,2.66836,160.758,0.00042671
block_1,5399,9,9650,1,-0.224557,31.077,2.65978,159.904,0.0017424
block_1,5400,9,9651,1,-0.561983,33.2057,4.33129,151.225,-0.00627114
block_1,5401,9,9652,1,-0.581977,31.7507,4.32413,150.428,-0.00348512
block_1,5402,9,9653,1,-1.09854,30.6826,5.87031,139.992,-0.0140798
block_1,5403,9,9654,1,-1.13784,29.3267,5.86303,139.252,-0.00929005
block_1,5404,9,9655,1,-0.603299,30.2977,4.31488,149.631,-0.00055222
block_1,5405,9,9656,1,-0.626163,28.8474,4.3035,148.833,0.00249667
block_1,5406,9,9657,1,-1.17991,27.971,5.85342,138.512,-0.00432105
block_1,5407,9,9658,1,-1.22522,26.6155,5.84153,137.77,0.000746385
block_1,5408,9,9659,1,-1.58359,33.1742,7.29874,131.482,-0.0508617
block_1,5409,9,9660,1,-1.6343,31.9234,7.30201,130.805,-0.0453289
block_1,5410,9,9661,1,-2.34874,30.2486,8.60581,120.033,-0.0767053
block_1,5411,9,9662,1,-2.42182,29.1013,8.61157,119.414,-0.0692122
block_1,5412,9,9663,1,-1.68772,30.6709,7.30309,130.127,-0.039377
block_1,5413,9,9664,1,-1.74418,29.4169,7.30188,129.447,-0.0330381
block_1,5414,9,9665,1,-2.49872,27.9516,8.61512,118.793,-0.0612124
block_1,5415,9,9666,1,-2.5799,26.7995,8.61639,118.171,-0.0527717
block_1,5416,9,9667,1,-3.24836,27.3283,9.79851,108.59,-0.108296
block_1,5417,9,9668,1,-3.34512,26.2847,9.80735,108.029,-0.0988524
block_1,5418,9,9669,1,-4.27016,24.414,10.8767,97.154,-0.145765
block_1,5419,9,9670,1,-4.38994,23.4743,10.8891,96.6513,-0.134477
block_1,5420,9,9671,1,-3.44669,25.2379,9.81406,107.467,-0.0888516
block_1,5421,9,9672,1,-3.55367,24.1878,9.81865,106.903,-0.0784061
block_1,5422,9,9673,1,-4.51528,22.5308,10.8996,96.147,-0.122626
block_1,5423,9,9674,1,-4.64686,21.5833,10.9082,95.6409,-0.110383
block_1,5424,9,9675,1,-1.80407,28.1615,7.29832,128.766,-0.0263659
block_1,5425,9,9676,1,-1.8679,26.9046,7.29242,128.084,-0.0194416
block_1,5426,9,9677,1,-2.66594,25.6447,8.61539,117.548,-0.043991
block_1,5427,9,9678,1,-2.75758,24.487,8.6122,116.923,-0.0350169
block_1,5428,9,9679,1,-1.93631,25.6461,7.28423,127.4,-0.0123823
block_1,5429,9,9680,1,-2.01014,24.3857,7.27392,126.715,-0.0053512
block_1,5430,9,9681,1,-2.85574,23.3262,8.60699,116.296,-0.0260542
block_1,5431,9,9682,1,-2.96162,22.1617,8.60007,115.667,-0.0173831
block_1,5432,9,9683,1,-3.66681,23.134,9.82119,106.337,-0.0676812
block_1,5433,9,9684,1,-3.78704,22.0763,9.82185,105.769,-0.0569091
block_1,5434,9,9685,1,-4.78556,20.6313,10.9151,95.1329,-0.0979918
block_1,5435,9,9686,1,-4.93248,19.6745,10.9205,94.6228,-0.08579
block_1,5436,9,9687,1,-3.91555,21.0141,9.82091,105.2,-0.0464088
block_1,5437,9,9688,1,-4.05387,19.9469,9.81884,104.628,-0.0366104
block_1,5438,9,9689,1,-5.08902,18.7123,10.9249,94.1104,-0.0742326
block_1,5439,9,9690,1,-5.25695,17.7439,10.9287,93.5953,-0.0639268
block_1,5440,9,9691,1,-0.0254612,31.6663,0.905537,170.072,0.000765224
block_1,5441,9,9692,1,-0.0263545,30.043,0.900778,169.164,0.00105896
block_1,5442,9,9693,1,-0.233053,29.537,2.64954,159.05,0.00311601
block_1,5443,9,9694,1,-0.24221,28.0037,2.63762,158.196,0.00453124
block_1,5444,9,9695,1,-0.027318,28.4315,0.895283,168.257,0.00136407
block_1,5445,9,9696,1,-0.028364,26.8332,0.889032,167.353,0.00167699
block_1,5446,9,9697,1,-0.252159,26.4777,2.62401,157.343,0.00596518
block_1,5447,9,9698,1,-0.263072,24.9595,2.60876,156.492,0.00738613
block_1,5448,9,9699,1,-0.650845,27.3999,4.28998,148.035,0.00561711
block_1,5449,9,9700,1,-0.67771,25.9554,4.27439,147.236,0.00874686
block_1,5450,9,9701,1,-1.2744,25.2602,5.82747,137.027,0.0057995
block_1,5451,9,9702,1,-1.32826,23.9045,5.8115,136.284,0.0106835
block_1,5452,9,9703,1,-0.707239,24.5139,4.2569,146.437,0.0118002
block_1,5453,9,9704,1,-0.740079,23.0752,4.23777,145.638,0.0146593
block_1,5454,9,9705,1,-1.38788,22.5481,5.794,135.539,0.0151873
block_1,5455,9,9706,1,-1.45474,21.19,5.77559,134.792,0.0190238
block_1,5456,9,9707,1,-0.0295081,25.2497,0.882016,166.451,0.00199292
block_1,5457,9,9708,1,-0.0307708,23.6823,0.874239,165.552,0.00230493
block_1,5458,9,9709,1,-0.275185,23.4494,2.592,155.641,0.00875032
block_1,5459,9,9710,1,-0.288818,21.9475,2.57393,154.791,0.00999746
block_1,5460,9,9711,1,-0.0321786,22.1324,0.865729,164.657,0.0026043
block_1,5461,9,9712,1,-0.0337703,20.6012,0.856542,163.765,0.00287618
block_1,5462,9,9713,1,-0.304423,20.4533,2.55488,153.942,0.0110425
block_1,5463,9,9714,1,-0.322646,18.9656,2.53538,153.094,0.0117671
block_1,5464,9,9715,1,-0.777113,21.6386,4.21744,144.838,0.0171628
block_1,5465,9,9716,1,-0.819564,20.2027,4.19657,144.037,0.0190872
block_1,5466,9,9717,1,-1.53078,19.8286,5.75717,134.043,0.0218005
block_1,5467,9,9718,1,-1.61873,18.462,5.74,133.292,0.022977
block_1,5468,9,9719,1,-0.869154,18.7658,4.17613,143.235,0.0201205
block_1,5469,9,9720,1,-0.928364,17.3248,4.15754,142.43,0.0198169
block_1,5470,9,9721,1,-1.72237,17.0871,5.72592,132.536,0.021799
block_1,5471,9,9722,1,-1.84707,15.6997,5.71747,131.776,0.0172007
block_1,5472,9,9723,1,-2.09044,23.123,7.26178,126.028,0.0014282
block_1,5473,9,9724,1,-2.17862,21.8572,7.24828,125.339,0.00765288
block_1,5474,9,9725,1,-3.07675,20.9929,8.59192,115.036,-0.00938241
block_1,5475,9,9726,1,-3.20312,19.8188,8.58324,114.403,-0.00256018
block_1,5476,9,9727,1,-2.27652,20.5875,7.23412,124.648,0.0129138
block_1,5477,9,9728,1,-2.38659,19.3123,7.2203,123.954,0.016658
block_1,5478,9,9729,1,-3.34334,18.6382,8.57506,113.766,0.0024035
block_1,5479,9,9730,1,-3.50077,17.4496,8.56877,113.126,0.0045966
block_1,5480,9,9731,1,-4.20393,18.8737,9.81629,104.053,-0.0280887
block_1,5481,9,9732,1,-4.36823,17.7937,9.81421,103.475,-0.0216074
block_1,5482,9,9733,1,-5.4385,16.7686,10.9329,93.0771,-0.0556758
block_1,5483,9,9734,1,-5.63653,15.7854,10.9386,92.5552,-0.0505371
block_1,5484,9,9735,1,-4.54997,16.7055,9.81389,102.893,-0.0181804
block_1,5485,9,9736,1,-4.75327,15.6074,9.81709,102.307,-0.0191559
block_1,5486,9,9737,1,-5.85464,14.793,10.9472,92.0291,-0.0499024
block_1,5487,9,9738,1,-6.0974,13.7901,10.9609,91.4979,-0.0556057
block_1,5488,9,9739,1,-2.51208,18.0299,7.20823,123.257,0.0181348
block_1,5489,9,9740,1,-2.65744,16.7375,7.19988,122.556,0.0163161
block_1,5490,9,9741,1,-3.67991,16.2507,8.56629,112.481,0.0027897
block_1,5491,9,9742,1,-3.88665,15.0389,8.57026,111.831,-0.00468755
block_1,5492,9,9743,1,-2.82871,15.4317,7.19798,121.849,0.00977762
block_1,5493,9,9744,1,-3.03423,14.1079,7.20628,121.134,-0.00348352
block_1,5494,9,9745,1,-4.12889,13.8108,8.58421,111.173,-0.0201295
block_1,5495,9,9746,1,-4.41716,12.5619,8.61293,110.506,-0.0467263
block_1,5496,9,9747,1,-4.98348,14.4976,9.82617,101.716,-0.0263355
block_1,5497,9,9748,1,-5.2475,13.3735,9.84427,101.117,-0.0421441
block_1,5498,9,9749,1,-6.37062,12.7749,10.9823,90.9605,-0.0700735
block_1,5499,9,9750,1,-6.68164,11.7456,11.0148,90.4156,-0.0965357
block_1,5500,9,9751,1,-5.55429,12.2321,9.87556,100.511,-0.0698753
block_1,5501,9,9752,1,-5.91549,11.07,9.92553,99.8937,-0.114054
block_1,5502,9,9753,1,-7.03974,10.6999,11.063,89.8617,-0.139325
block_1,5503,9,9754,1,-7.45661,9.63568,11.1326,89.2966,-0.204304
block_1,5504,9,9755,1,-5.39962,21.5064,11.8402,85.7241,-0.189172
block_1,5505,9,9756,1,-5.5397,20.671,11.8566,85.2795,-0.176222
block_1,5506,9,9757,1,-6.62069,18.6058,12.6886,74.2996,-0.238489
block_1,5507,9,9758,1,-6.77638,17.8754,12.7092,73.9133,-0.224114
block_1,5508,9,9759,1,-5.68571,19.8314,11.8713,84.8333,-0.162748
block_1,5509,9,9760,1,-5.83841,18.9872,11.8845,84.3853,-0.148991
block_1,5510,9,9761,1,-6.93798,17.1404,12.7285,73.5254,-0.209299
block_1,5511,9,9762,1,-7.1063,16.4005,12.7466,73.1356,-0.194359
block_1,5512,9,9763,1,-7.91673,15.7127,13.4212,62.88,-0.293598
block_1,5513,9,9764,1,-8.08159,15.0879,13.4463,62.5522,-0.278071
block_1,5514,9,9765,1,-9.2714,12.8271,14.0376,51.4647,-0.354282
block_1,5515,9,9766,1,-9.43758,12.3088,14.0671,51.1955,-0.337893
block_1,5516,9,9767,1,-8.252,14.4584,13.4703,62.2227,-0.262223
block_1,5517,9,9768,1,-8.4288,13.8237,13.4936,61.8912,-0.246449
block_1,5518,9,9769,1,-9.60873,11.7856,14.096,50.9245,-0.321329
block_1,5519,9,9770,1,-9.78567,11.2573,14.1244,50.6517,-0.305067
block_1,5520,9,9771,1,-5.99877,18.138,11.8963,83.9353,-0.135287
block_1,5521,9,9772,1,-6.16798,17.2833,11.9071,83.483,-0.12209
block_1,5522,9,9773,1,-7.28234,15.6551,12.7637,72.7437,-0.17973
block_1,5523,9,9774,1,-7.46739,14.9039,12.7804,72.3494,-0.165993
block_1,5524,9,9775,1,-6.34759,16.4225,11.9174,83.0281,-0.110009
block_1,5525,9,9776,1,-6.53953,15.5549,11.9279,82.5703,-0.0998455
block_1,5526,9,9777,1,-7.66305,14.1462,12.797,71.9524,-0.153918
block_1,5527,9,9778,1,-7.87132,13.3815,12.8144,71.5522,-0.144511
block_1,5528,9,9779,1,-8.61301,13.1834,13.5163,61.5577,-0.231287
block_1,5529,9,9780,1,-8.80593,12.5371,13.5389,61.2217,-0.217447
block_1,5530,9,9781,1,-9.96943,10.7234,14.1526,50.3768,-0.28974
block_1,5531,9,9782,1,-10.1613,10.1834,14.1812,50.0993,-0.276185
block_1,5532,9,9783,1,-9.00918,11.8843,13.562,60.8828,-0.20586
block_1,5533,9,9784,1,-9.22476,11.2244,13.5863,60.5407,-0.197732
block_1,5534,9,9785,1,-10.3628,9.63711,14.2106,49.8191,-0.265484
block_1,5535,9,9786,1,-10.576,9.08405,14.2417,49.5355,-0.25903
block_1,5536,9,9787,1,-10.6695,9.94896,14.537,40.0532,-0.420227
block_1,5537,9,9788,1,-10.8281,9.53797,14.571,39.8427,-0.403269
block_1,5538,9,9789,1,-12.0977,7.07819,14.9187,28.6448,-0.491027
block_1,5539,9,9790,1,-12.2391,6.77535,14.9569,28.4931,-0.473783
block_1,5540,9,9791,1,-10.991,9.12221,14.6046,39.6305,-0.3863
block_1,5541,9,9792,1,-11.1589,8.70134,14.638,39.4165,-0.369868
block_1,5542,9,9793,1,-12.384,6.46794,14.9951,28.3399,-0.456697
block_1,5543,9,9794,1,-12.5333,6.15565,15.0334,28.185,-0.440381
block_1,5544,9,9795,1,-13.545,4.21437,15.1821,17.2389,-0.566184
block_1,5545,9,9796,1,-13.6589,4.02056,15.2242,17.1462,-0.548922
block_1,5546,9,9797,1,-15.0029,1.357,15.3262,5.83475,-0.645122
block_1,5547,9,9798,1,-15.0789,1.27307,15.372,5.80132,-0.628086
block_1,5548,9,9799,1,-13.7759,3.82247,15.2666,17.0522,-0.531979
block_1,5549,9,9800,1,-13.8966,3.61985,15.3095,16.9566,-0.51602
block_1,5550,9,9801,1,-15.1576,1.18526,15.4183,5.76667,-0.611511
block_1,5551,9,9802,1,-15.2397,1.09336,15.4652,5.73055,-0.596106
block_1,5552,9,9803,1,-11.3329,8.27502,14.6717,39.2004,-0.354702
block_1,5553,9,9804,1,-11.5143,7.84292,14.706,38.9819,-0.341749
block_1,5554,9,9805,1,-12.6879,5.8382,15.0722,28.0281,-0.425644
block_1,5555,9,9806,1,-12.849,5.51534,15.1118,27.8687,-0.413529
block_1,5556,9,9807,1,-11.7044,7.40478,14.7414,38.7605,-0.332229
block_1,5557,9,9808,1,-11.9052,6.96038,14.7787,38.5359,-0.327695
block_1,5558,9,9809,1,-13.0179,5.18692,15.1527,27.7067,-0.405369
block_1,5559,9,9810,1,-13.1964,4.85287,15.1956,27.5414,-0.402847
block_1,5560,9,9811,1,-14.022,3.41247,15.3529,16.859,-0.501919
block_1,5561,9,9812,1,-14.153,3.20017,15.3974,16.7592,-0.490792
block_1,5562,9,9813,1,-15.3259,0.997181,15.5129,5.69268,-0.582784
block_1,5563,9,9814,1,-15.4171,0.896651,15.5617,5.65274,-0.572716
block_1,5564,9,9815,1,-14.291,2.98288,15.4433,16.6568,-0.484058
block_1,5565,9,9816,1,-14.4373,2.76069,15.491,16.5514,-0.483494
block_1,5566,9,9817,1,-15.5145,0.791793,15.6118,5.61036,-0.567372
block_1,5567,9,9818,1,-15.6192,0.68279,15.6636,5.56513,-0.568582
block_1,5568,9,9819,1,-6.74621,14.6799,11.9395,82.109,-0.0926525
block_1,5569,9,9820,1,-6.97067,13.7964,11.9535,81.6438,-0.0898022
block_1,5570,9,9821,1,-8.09468,12.609,12.8336,71.1484,-0.139078
block_1,5571,9,9822,1,-8.33623,11.8283,12.856,70.7404,-0.139309
block_1,5572,9,9823,1,-7.21671,12.9035,11.9715,81.1739,-0.0930842
block_1,5573,9,9824,1,-7.48908,12.0001,11.9958,80.6984,-0.104834
block_1,5574,9,9825,1,-8.59975,11.0384,12.8832,70.3274,-0.147386
block_1,5575,9,9826,1,-8.88991,10.2388,12.9174,69.9085,-0.166125
block_1,5576,9,9827,1,-9.45513,10.557,13.613,60.1949,-0.194615
block_1,5577,9,9828,1,-9.70329,9.8817,13.6434,59.8447,-0.198499
block_1,5578,9,9829,1,-10.8031,8.52398,14.2754,49.2481,-0.258598
block_1,5579,9,9830,1,-11.0471,7.95671,14.313,48.9563,-0.266443
block_1,5580,9,9831,1,-9.97288,9.19809,13.679,59.4893,-0.211926
block_1,5581,9,9832,1,-10.2683,8.50598,13.722,59.128,-0.238142
block_1,5582,9,9833,1,-11.3111,7.38223,14.356,48.6593,-0.285416
block_1,5583,9,9834,1,-11.5992,6.80081,14.4062,48.3563,-0.319116
block_1,5584,9,9835,1,-7.79365,11.0851,12.0291,80.2163,-0.128107
block_1,5585,9,9836,1,-8.13772,10.1572,12.075,79.7262,-0.166921
block_1,5586,9,9837,1,-9.21236,9.42881,12.9615,69.4827,-0.199169
block_1,5587,9,9838,1,-9.57397,8.60814,13.0187,69.0488,-0.251242
block_1,5588,9,9839,1,-8.53026,9.21526,12.138,79.2266,-0.226591
block_1,5589,9,9840,1,-8.98226,8.25858,12.2237,78.7154,-0.314186
block_1,5590,9,9841,1,-9.98295,7.77678,13.0934,68.6051,-0.328496
block_1,5591,9,9842,1,-10.449,6.93538,13.1906,68.1498,-0.438968
block_1,5592,9,9843,1,-10.5947,7.80539,13.775,58.7596,-0.281293
block_1,5593,9,9844,1,-10.9582,7.09679,13.8409,58.383,-0.346677
block_1,5594,9,9845,1,-11.916,6.21307,14.4659,48.0464,-0.372076
block_1,5595,9,9846,1,-12.2667,5.62019,14.5376,47.7283,-0.450002
block_1,5596,9,9847,1,-11.3661,6.38122,13.9235,57.9968,-0.441078
block_1,5597,9,9848,1,-11.8264,5.66069,14.027,57.5992,-0.573187
block_1,5598,9,9849,1,-12.6572,5.02416,14.6243,47.4009,-0.560071
block_1,5599,9,9850,1,-13.094,4.42803,14.7289,47.0627,-0.711289
block_1,5600,9,9851,1,-12.1187,6.50965,14.8187,38.3075,-0.330113
block_1,5601,9,9852,1,-12.3476,6.05267,14.8626,38.0746,-0.341954
block_1,5602,9,9853,1,-13.3862,4.5133,15.2412,27.3724,-0.408076
block_1,5603,9,9854,1,-13.5897,4.16853,15.2903,27.1992,-0.423686
block_1,5604,9,9855,1,-12.5948,5.58976,14.9117,37.8367,-0.36631
block_1,5605,9,9856,1,-12.8637,5.12161,14.9674,37.5929,-0.407037
block_1,5606,9,9857,1,-13.8093,3.81917,15.344,27.0211,-0.452933
block_1,5607,9,9858,1,-14.0478,3.46626,15.4034,26.8372,-0.499827
block_1,5608,9,9859,1,-14.5936,2.53386,15.5412,16.4424,-0.49131
block_1,5609,9,9860,1,-14.7617,2.30289,15.5944,16.3293,-0.510233
block_1,5610,9,9861,1,-15.7325,0.570035,15.7175,5.51658,-0.578607
block_1,5611,9,9862,1,-15.8558,0.454188,15.7737,5.46418,-0.600203
block_1,5612,9,9863,1,-14.9437,2.06866,15.6514,16.2115,-0.543602
block_1,5613,9,9864,1,-15.1417,1.83243,15.7129,16.0883,-0.595476
block_1,5614,9,9865,1,-15.9908,0.336261,15.8327,5.40736,-0.636715
block_1,5615,9,9866,1,-16.1389,0.217702,15.8947,5.34549,-0.692155
block_1,5616,9,9867,1,-13.1582,4.64934,15.0315,37.3424,-0.468926
block_1,5617,9,9868,1,-13.4825,4.17477,15.106,37.084,-0.557909
block_1,5618,9,9869,1,-14.3084,3.11134,15.4698,26.6469,-0.569277
block_1,5619,9,9870,1,-14.5944,2.75666,15.5444,26.4491,-0.667269
block_1,5620,9,9871,1,-13.8413,3.70057,15.1929,36.8167,-0.681311
block_1,5621,9,9872,1,-14.2392,3.23057,15.2942,36.5392,-0.848125
block_1,5622,9,9873,1,-14.9089,2.40538,15.6282,26.243,-0.801044
block_1,5623,9,9874,1,-15.2553,2.06178,15.7222,26.0274,-0.979301
block_1,5624,9,9875,1,-15.3581,1.59604,15.7795,15.959,-0.670757
block_1,5625,9,9876,1,-15.5951,1.36203,15.8518,15.8228,-0.775318
block_1,5626,9,9877,1,-16.3018,0.100503,15.9599,5.2779,-0.771302
block_1,5627,9,9878,1,-16.4809,-0.0126782,16.0281,5.20387,-0.87978
block_1,5628,9,9879,1,-15.8549,1.1338,15.93,15.6787,-0.916128
block_1,5629,9,9880,1,-16.1393,0.915807,16.0138,15.526,-1.10136
block_1,5630,9,9881,1,-16.6772,-0.118395,16.0987,5.12268,-1.02413
block_1,5631,9,9882,1,-16.8913,-0.212278,16.1705,5.0336,-1.21186
block_1,5632,9,9883,1,-0.0355923,19.0894,0.846778,162.878,0.00310738
block_1,5633,9,9884,1,-0.0377371,17.5976,0.836595,161.995,0.00325383
block_1,5634,9,9885,1,-0.344442,17.4823,2.5162,152.246,0.0119928
block_1,5635,9,9886,1,-0.371235,16.0001,2.4985,151.397,0.011477
block_1,5636,9,9887,1,-0.0402693,16.1253,0.826246,161.116,0.00332478
block_1,5637,9,9888,1,-0.0435261,14.6711,0.816121,160.241,0.00310063
block_1,5638,9,9889,1,-0.405325,14.5133,2.48402,150.545,0.00978089
block_1,5639,9,9890,1,-0.450252,13.0135,2.47538,149.689,0.00642453
block_1,5640,9,9891,1,-1.00084,15.8753,4.14283,141.622,0.0175377
block_1,5641,9,9892,1,-1.0921,14.4109,4.13496,140.808,0.0123146
block_1,5642,9,9893,1,-2.00053,14.2942,5.71829,131.009,0.00763905
block_1,5643,9,9894,1,-2.1941,12.8625,5.73351,130.232,-0.0091406
block_1,5644,9,9895,1,-1.21067,12.9225,4.13828,139.986,0.00273695
block_1,5645,9,9896,1,-1.37041,11.3968,4.15925,139.152,-0.0135961
block_1,5646,9,9897,1,-2.44471,11.3939,5.77053,129.443,-0.0365924
block_1,5647,9,9898,1,-2.77795,9.87334,5.84014,128.635,-0.0799072
block_1,5648,9,9899,1,-0.0473457,13.232,0.806837,159.369,0.00294908
block_1,5649,9,9900,1,-0.0537244,11.8021,0.799399,158.498,0.00123579
block_1,5650,9,9901,1,-0.512731,11.4877,2.47668,148.825,-2.53549e-05
block_1,5651,9,9902,1,-0.602944,9.91603,2.49433,147.948,-0.00999691
block_1,5652,9,9903,1,-0.0592734,10.3717,0.795411,157.628,0.00212835
block_1,5653,9,9904,1,-0.0800439,8.92178,0.797951,156.749,-0.00890418
block_1,5654,9,9905,1,-0.747087,8.26645,2.53922,147.047,-0.0304836
block_1,5655,9,9906,1,-0.981012,6.49177,2.62886,146.112,-0.0551168
block_1,5656,9,9907,1,-1.59381,9.81468,4.20766,138.3,-0.0399954
block_1,5657,9,9908,1,-1.92124,8.14784,4.29896,137.421,-0.0837742
block_1,5658,9,9909,1,-3.23358,8.28039,5.95838,127.801,-0.147836
block_1,5659,9,9910,1,-3.87156,6.58721,6.14934,126.932,-0.253402
block_1,5660,9,9911,1,-2.41878,6.3558,4.45737,136.503,-0.152413
block_1,5661,9,9912,1,-3.21889,4.37366,4.72539,135.521,-0.275902
block_1,5662,9,9913,1,-4.78732,4.7546,6.4511,126.009,-0.422986
block_1,5663,9,9914,1,-6.11159,2.73319,6.92178,125.013,-0.691424
block_1,5664,9,9915,1,-3.28564,12.7599,7.22999,120.41,-0.0263249
block_1,5665,9,9916,1,-3.59929,11.3798,7.27634,119.674,-0.0629233
block_1,5666,9,9917,1,-4.76564,11.2868,8.66292,109.828,-0.0889856
block_1,5667,9,9918,1,-5.19338,9.97878,8.74299,109.135,-0.153366
block_1,5668,9,9919,1,-3.99832,9.9572,7.35551,118.921,-0.11945
block_1,5669,9,9920,1,-4.51571,8.47861,7.48193,118.145,-0.205425
block_1,5670,9,9921,1,-5.72607,8.62963,8.86518,108.423,-0.249339
block_1,5671,9,9922,1,-6.398,7.22992,9.04598,107.685,-0.390929
block_1,5672,9,9923,1,-6.34616,9.88305,10.0015,99.2638,-0.18097
block_1,5673,9,9924,1,-6.8658,8.66668,10.1129,98.6175,-0.279502
block_1,5674,9,9925,1,-7.94692,8.55065,11.231,88.7177,-0.299488
block_1,5675,9,9926,1,-8.52887,7.443,11.3678,88.1219,-0.435945
block_1,5676,9,9927,1,-7.49944,7.41624,10.2726,97.9506,-0.422328
block_1,5677,9,9928,1,-8.27903,6.12754,10.497,97.2572,-0.627915
block_1,5678,9,9929,1,-9.22493,6.31193,11.5549,87.5051,-0.629136
block_1,5679,9,9930,1,-10.0623,5.15886,11.807,86.8621,-0.900828
block_1,5680,9,9931,1,-5.19787,6.92707,7.67629,117.338,-0.335361
block_1,5681,9,9932,1,-6.11093,5.28122,7.96889,116.489,-0.533563
block_1,5682,9,9933,1,-7.255,5.76922,9.30815,106.913,-0.599705
block_1,5683,9,9934,1,-8.35645,4.2379,9.68284,106.098,-0.908513
block_1,5684,9,9935,1,-7.34353,3.51703,8.40362,115.582,-0.837353
block_1,5685,9,9936,1,-9.02364,1.60704,9.04778,114.592,-1.31841
block_1,5686,9,9937,1,-9.78073,2.62953,10.2132,105.223,-1.37123
block_1,5687,9,9938,1,-11.622,0.951023,10.9553,104.27,-2.07045
block_1,5688,9,9939,1,-9.24452,4.79842,10.8078,96.53,-0.923331
block_1,5689,9,9940,1,-10.4456,3.43119,11.2326,95.7594,-1.3494
block_1,5690,9,9941,1,-11.0731,3.9893,12.142,86.1866,-1.28205
block_1,5691,9,9942,1,-12.2943,2.81626,12.5801,85.4711,-1.81694
block_1,5692,9,9943,1,-11.9407,2.03837,11.805,94.9335,-1.96684
block_1,5693,9,9944,1,-13.7999,0.650172,12.5636,94.0363,-2.87019
block_1,5694,9,9945,1,-13.7664,1.66506,13.142,84.706,-2.569
block_1,5695,9,9946,1,-15.5277,0.582372,13.8425,83.8812,-3.62699
block_1,5696,9,9947,1,-0.0783036,7.42515,0.81143,155.865,0.0103805
block_1,5697,9,9948,1,-0.203867,5.81317,0.84955,154.924,-0.079393
block_1,5698,9,9949,1,-1.45009,4.5016,2.79932,145.109,-0.132567
block_1,5699,9,9950,1,-2.31661,2.17982,3.10303,144.03,-0.171929
block_1,5700,9,9951,1,-0.0849655,4.01141,0.920456,154.015,0.149457
block_1,5701,9,9952,1,-1.28917,1.68032,1.13285,152.697,-0.715917
block_1,5702,9,9953,1,-4.41559,-0.803489,3.71469,142.687,-0.590356
block_1,5703,9,9954,1,-7.81074,-4.71055,4.77104,141.257,-0.410541
block_1,5704,9,9955,1,-4.50297,2.11493,5.16951,134.453,-0.462773
block_1,5705,9,9956,1,-6.67752,-0.591645,5.93747,133.21,-0.883154
block_1,5706,9,9957,1,-8.06392,0.448429,7.66433,123.898,-1.15907
block_1,5707,9,9958,1,-10.8661,-2.15673,8.82379,122.627,-1.92064
block_1,5708,9,9959,1,-9.99581,-3.89527,7.21939,131.777,-1.44974
block_1,5709,9,9960,1,-15.948,-8.35481,9.7591,129.705,-3.39208
block_1,5710,9,9961,1,-15.1127,-5.20801,10.7358,121.045,-3.46323
block_1,5711,9,9962,1,-20.9696,-8.43221,13.6538,119.148,-6.07741
block_1,5712,9,9963,1,-2.52014,-1.41555,1.38873,152.038,1.83287
block_1,5713,9,9964,1,-12.8387,-7.73084,3.29292,147.523,-7.7982
block_1,5714,9,9965,1,-16.0931,-11.2438,7.73799,138.296,-3.69127
block_1,5715,9,9966,1,-26.3473,-20.6099,11.9927,136.224,-0.512175
block_1,5716,9,9967,1,-24.4028,-21.2966,2.28005,151.705,24.7411
block_1,5717,9,9968,1,-246.988,-92.7561,91.9969,82.817,-176.978
block_1,5718,9,9969,1,-89.1353,-44.7417,45.239,119.736,-40.137
block_1,5719,9,9970,1,-124.205,-5.57606,36.4183,111.005,-112.314
block_1,5720,9,9971,1,-24.0251,-13.5877,13.8281,127.343,-5.69225
block_1,5721,9,9972,1,-45.8476,-21.5385,25.5653,121.666,-18.5043
block_1,5722,9,9973,1,-31.0482,-11.8173,18.8766,116.278,-12.4172
block_1,5723,9,9974,1,-43.1693,-10.3636,24.0678,112.973,-25.3695
block_1,5724,9,9975,1,-67.6144,-11.9352,32.5973,116.197,-48.1317
block_1,5725,9,9976,1,-81.3466,-2.04735,16.2949,110.805,-77.9436
block_1,5726,9,9977,1,-55.101,-5.17019,23.186,109.152,-44.2215
block_1,5727,9,9978,1,-61.4228,1.34306,11.8757,106.673,-59.1555
block_1,5728,9,9979,1,-11.3011,-0.460073,9.99414,113.491,-2.08133
block_1,5729,9,9980,1,-14.4369,-2.68375,11.3972,112.216,-3.37444
block_1,5730,9,9981,1,-14.0092,-0.768663,11.9845,103.21,-3.15355
block_1,5731,9,9982,1,-17.0613,-2.4257,13.3686,102.014,-4.83808
block_1,5732,9,9983,1,-18.6186,-4.89851,13.3969,110.727,-5.52
block_1,5733,9,9984,1,-24.4965,-6.86646,16.2731,108.858,-9.43817
block_1,5734,9,9985,1,-20.9738,-3.83623,15.1673,100.627,-7.53069
block_1,5735,9,9986,1,-25.713,-4.49197,17.1849,99.0457,-11.7679
block_1,5736,9,9987,1,-16.0911,-0.665039,13.5403,93.0509,-4.19745
block_1,5737,9,9988,1,-18.8867,-1.78799,14.7441,91.9547,-6.16084
block_1,5738,9,9989,1,-17.6099,-0.355489,14.6786,82.9856,-5.11419
block_1,5739,9,9990,1,-20.0117,-1.02571,15.5989,82.0124,-7.18486
block_1,5740,9,9991,1,-22.1848,-2.48903,16.0835,90.7382,-9.03463
block_1,5741,9,9992,1,-25.8811,-2.49686,17.2711,89.4002,-13.104
block_1,5742,9,9993,1,-22.6768,-1.27288,16.4617,80.9607,-10.0028
block_1,5743,9,9994,1,-25.4351,-0.936438,16.979,79.8517,-13.6529
block_1,5744,9,9995,1,-31.7647,-7.16958,19.4597,106.67,-16.3101
block_1,5745,9,9996,1,-39.7778,-5.20153,21.0723,104.14,-26.8664
block_1,5746,9,9997,1,-31.0487,-3.92324,18.7469,97.2645,-18.0555
block_1,5747,9,9998,1,-36.0823,-1.7766,18.5077,95.4592,-26.0643
block_1,5748,9,9999,1,-46.2194,-0.882935,18.1518,101.847,-38.9103
block_1,5749,9,10000,1,-49.053,2.35216,9.49404,100.218,-47.2943
block_1,5750,9,10001,1,-39.7009,1.03476,15.1375,93.839,-34.0582
block_1,5751,9,10002,1,-40.8475,2.94367,8.5934,92.7301,-39.159
block_1,5752,9,10003,1,-29.6072,-1.55475,17.7063,87.9979,-18.409
block_1,5753,9,10004,1,-32.801,0.190761,16.5955,86.6264,-24.4353
block_1,5754,9,10005,1,-27.9981,0.0176743,16.7216,78.7287,-18.0034
block_1,5755,9,10006,1,-29.9663,1.40031,15.2377,77.6714,-22.5536
block_1,5756,9,10007,1,-34.7723,2.12992,13.371,85.4504,-29.9189
block_1,5757,9,10008,1,-34.9974,3.23504,8.23035,84.6198,-33.2244
block_1,5758,9,10009,1,-30.9415,2.72266,12.3028,76.7736,-26.4404
block_1,5759,9,10010,1,-30.6459,3.38486,8.16589,76.1279,-28.6854
block_1,5760,9,10011,1,-9.50701,7.28693,12.3392,78.1902,-0.439187
block_1,5761,9,10012,1,-10.1204,6.30125,12.4928,77.6481,-0.614393
block_1,5762,9,10013,1,-10.9836,6.08567,13.3164,67.6807,-0.593207
block_1,5763,9,10014,1,-11.5996,5.23107,13.4775,67.1954,-0.805098
block_1,5764,9,10015,1,-10.8412,5.30447,12.6948,77.0855,-0.857179
block_1,5765,9,10016,1,-11.6907,4.30287,12.9568,76.4981,-1.19127
block_1,5766,9,10017,1,-12.3116,4.37758,13.6816,66.6906,-1.09295
block_1,5767,9,10018,1,-13.1349,3.53509,13.9364,66.163,-1.48084
block_1,5768,9,10019,1,-12.3483,4.93855,14.1561,57.1884,-0.754152
block_1,5769,9,10020,1,-12.9418,4.22015,14.3156,56.7623,-0.998257
block_1,5770,9,10021,1,-13.5839,3.83639,14.8548,46.7121,-0.914928
block_1,5771,9,10022,1,-14.1339,3.2559,15.0046,46.3472,-1.18502
block_1,5772,9,10023,1,-13.617,3.51366,14.5102,56.3183,-1.32373
block_1,5773,9,10024,1,-14.3836,2.83113,14.7435,55.8539,-1.75367
block_1,5774,9,10025,1,-14.7502,2.69592,15.1803,45.9663,-1.53889
block_1,5775,9,10026,1,-15.4376,2.16933,15.3814,45.5674,-1.99755
block_1,5776,9,10027,1,-12.6926,3.30812,13.2909,75.8809,-1.64903
block_1,5777,9,10028,1,-13.8713,2.34023,13.7088,75.2278,-2.27456
block_1,5778,9,10029,1,-14.0847,2.71915,14.248,65.6088,-2.00029
block_1,5779,9,10030,1,-15.1742,1.95329,14.6192,65.024,-2.69183
block_1,5780,9,10031,1,-15.2489,1.43196,14.2169,74.5328,-3.12682
block_1,5781,9,10032,1,-16.8407,0.633392,14.8097,73.7896,-4.28283
block_1,5782,9,10033,1,-16.4111,1.27153,15.0444,64.4046,-3.60623
block_1,5783,9,10034,1,-17.792,0.720654,15.503,63.7479,-4.80347
block_1,5784,9,10035,1,-15.2496,2.18983,15.0159,55.3663,-2.31684
block_1,5785,9,10036,1,-16.2189,1.61356,15.3229,54.8531,-3.04819
block_1,5786,9,10037,1,-16.1982,1.69328,15.6039,45.1488,-2.58593
block_1,5787,9,10038,1,-17.0288,1.28972,15.8375,44.7092,-3.33233
block_1,5788,9,10039,1,-17.2882,1.13381,15.6501,54.3124,-3.98811
block_1,5789,9,10040,1,-18.4426,0.789323,15.9678,53.7437,-5.17941
block_1,5790,9,10041,1,-17.9192,0.985245,16.0627,44.2482,-4.26668
block_1,5791,9,10042,1,-18.8481,0.80948,16.2461,43.7667,-5.41654
block_1,5792,9,10043,1,-14.6811,2.77015,15.4113,36.2502,-1.06933
block_1,5793,9,10044,1,-15.171,2.32661,15.5451,35.9483,-1.35816
block_1,5794,9,10045,1,-15.6362,1.7316,15.8264,25.8013,-1.21237
block_1,5795,9,10046,1,-16.0534,1.42225,15.9397,25.5636,-1.51234
block_1,5796,9,10047,1,-15.7119,1.9097,15.6949,35.6321,-1.73041
block_1,5797,9,10048,1,-16.3045,1.53202,15.857,35.3004,-2.20438
block_1,5798,9,10049,1,-16.5072,1.14316,16.0592,25.3134,-1.89306
block_1,5799,9,10050,1,-16.9954,0.905896,16.1791,25.0498,-2.36985
block_1,5800,9,10051,1,-16.4493,0.713754,16.1021,15.3637,-1.34047
block_1,5801,9,10052,1,-16.7848,0.534751,16.1922,15.1912,-1.64415
block_1,5802,9,10053,1,-17.1229,-0.288934,16.2412,4.93596,-1.45139
block_1,5803,9,10054,1,-17.3705,-0.341883,16.3071,4.82919,-1.75191
block_1,5804,9,10055,1,-17.144,0.387419,16.2796,15.0077,-2.02414
block_1,5805,9,10056,1,-17.5227,0.281834,16.3568,14.8128,-2.4928
block_1,5806,9,10057,1,-17.6308,-0.363595,16.3624,4.71287,-2.12309
block_1,5807,9,10058,1,-17.8984,-0.345698,16.3989,4.58687,-2.57453
block_1,5808,9,10059,1,-16.9465,1.20933,16.024,34.9521,-2.80062
block_1,5809,9,10060,1,-17.6303,0.960452,16.1822,34.5869,-3.54075
block_1,5810,9,10061,1,-17.5125,0.724105,16.2895,24.7725,-2.95884
block_1,5811,9,10062,1,-18.0482,0.612993,16.375,24.4816,-3.67561
block_1,5812,9,10063,1,-18.3412,0.806377,16.3093,34.2053,-4.44527
block_1,5813,9,10064,1,-19.0556,0.76803,16.3721,33.809,-5.5295
block_1,5814,9,10065,1,-18.586,0.58808,16.4128,24.1783,-4.53279
block_1,5815,9,10066,1,-19.1025,0.662937,16.3723,23.8646,-5.53653
block_1,5816,9,10067,1,-17.9135,0.22921,16.4128,14.6065,-3.0622
block_1,5817,9,10068,1,-18.3047,0.241166,16.4316,14.3894,-3.74274
block_1,5818,9,10069,1,-18.1649,-0.279426,16.4049,4.45141,-3.11477
block_1,5819,9,10070,1,-18.4186,-0.156428,16.3651,4.30725,-3.75002
block_1,5820,9,10071,1,-18.68,0.3284,16.3917,14.1629,-4.54092
block_1,5821,9,10072,1,-19.0171,0.498659,16.2655,13.9291,-5.45643
block_1,5822,9,10073,1,-18.6436,0.0300011,16.2596,4.1558,-4.48226
block_1,5823,9,10074,1,-18.8202,0.283225,16.0648,3.99929,-5.30691
block_1,5824,9,10075,1,-18.6441,0.0177176,15.4557,72.9937,-5.83599
block_1,5825,9,10076,1,-20.625,-0.321975,16.0766,72.1445,-7.88575
block_1,5826,9,10077,1,-19.2952,0.359372,15.9483,63.0534,-6.34729
block_1,5827,9,10078,1,-20.8689,0.252157,16.2947,62.3249,-8.28994
block_1,5828,9,10079,1,-22.6946,-0.285503,16.5217,71.2507,-10.503
block_1,5829,9,10080,1,-24.6965,0.186548,16.5565,70.3331,-13.6695
block_1,5830,9,10081,1,-22.4232,0.449989,16.4084,61.5731,-10.6441
block_1,5831,9,10082,1,-23.8238,0.961151,16.1125,60.8183,-13.3413
block_1,5832,9,10083,1,-19.6501,0.623102,16.2243,53.1489,-6.65986
block_1,5833,9,10084,1,-20.8554,0.67377,16.3393,52.5337,-8.44831
block_1,5834,9,10085,1,-19.7801,0.790863,16.3372,43.2679,-6.79982
block_1,5835,9,10086,1,-20.6627,0.949115,16.2666,42.7581,-8.41363
block_1,5836,9,10087,1,-21.9765,0.960938,16.2033,51.9092,-10.5236
block_1,5837,9,10088,1,-22.9062,1.46476,15.689,51.2925,-12.8
block_1,5838,9,10089,1,-21.4263,1.28418,15.9491,42.2473,-10.2201
block_1,5839,9,10090,1,-21.9879,1.76447,15.2959,41.7498,-12.1327
block_1,5840,9,10091,1,-26.4025,1.05556,15.892,69.4311,-17.1952
block_1,5841,9,10092,1,-27.5492,2.12172,14.2806,68.5982,-20.6693
block_1,5842,9,10093,1,-24.9031,1.71379,15.2206,60.0906,-16.1926
block_1,5843,9,10094,1,-25.4841,2.53983,13.6025,59.4287,-18.877
block_1,5844,9,10095,1,-27.8946,3.04432,11.6562,67.8969,-23.4999
block_1,5845,9,10096,1,-27.2933,3.44075,8.24124,67.3811,-25.0823
block_1,5846,9,10097,1,-25.421,3.19528,11.2613,58.8729,-20.9868
block_1,5847,9,10098,1,-24.6386,3.43445,8.38184,58.4572,-22.1347
block_1,5848,9,10099,1,-23.5226,2.10904,14.6797,50.7071,-15.1101
block_1,5849,9,10100,1,-23.7081,2.75754,13.1114,50.1801,-17.2089
block_1,5850,9,10101,1,-22.26,2.31909,14.2356,41.2834,-14.0109
block_1,5851,9,10102,1,-22.1646,2.84119,12.7418,40.8676,-15.669
block_1,5852,9,10103,1,-23.3743,3.23709,11.0163,49.7389,-18.8116
block_1,5853,9,10104,1,-22.4853,3.38402,8.54241,49.4052,-19.6629
block_1,5854,9,10105,1,-21.6491,3.20609,10.856,40.521,-16.9054
block_1,5855,9,10106,1,-20.6996,3.30245,8.6963,40.2583,-17.5469
block_1,5856,9,10107,1,-19.7389,0.862237,16.3252,33.4017,-6.79733
block_1,5857,9,10108,1,-20.3445,1.09563,16.1111,32.9896,-8.23309
block_1,5858,9,10109,1,-19.5657,0.845722,16.214,23.5443,-6.68158
block_1,5859,9,10110,1,-19.9364,1.13472,15.8923,23.223,-7.94567
block_1,5860,9,10111,1,-20.8157,1.45732,15.6657,32.5813,-9.79254
block_1,5861,9,10112,1,-21.0893,1.91225,14.9284,32.1884,-11.3962
block_1,5862,9,10113,1,-20.1692,1.51367,15.36,22.9081,-9.28416
block_1,5863,9,10114,1,-20.2168,1.94846,14.5764,22.6086,-10.6273
block_1,5864,9,10115,1,-19.2882,0.754017,16.0204,13.6916,-6.47855
block_1,5865,9,10116,1,-19.4608,1.08776,15.6206,13.4553,-7.58239
block_1,5866,9,10117,1,-18.9249,0.60124,15.754,3.84086,-6.21034
block_1,5867,9,10118,1,-18.9311,0.974617,15.2999,3.68462,-7.16751
block_1,5868,9,10119,1,-19.4995,1.48162,15.032,13.2262,-8.72604
block_1,5869,9,10120,1,-19.3692,1.90436,14.228,13.0116,-9.8499
block_1,5870,9,10121,1,-18.8117,1.38497,14.6781,3.53554,-8.1406
block_1,5871,9,10122,1,-18.5409,1.80465,13.8718,3.39928,-9.07954
block_1,5872,9,10123,1,-21.1032,2.3988,13.8573,31.8243,-12.929
block_1,5873,9,10124,1,-20.8061,2.83381,12.4462,31.5033,-14.2504
block_1,5874,9,10125,1,-20.0356,2.38717,13.5183,22.3347,-11.8823
block_1,5875,9,10126,1,-19.5922,2.76529,12.1907,22.097,-12.9424
block_1,5876,9,10127,1,-20.1676,3.12666,10.7381,31.2383,-15.2154
block_1,5877,9,10128,1,-19.1864,3.19979,8.82651,31.0391,-15.7041
block_1,5878,9,10129,1,-18.8705,3.01612,10.6336,21.9046,-13.7018
block_1,5879,9,10130,1,-17.876,3.0846,8.92198,21.7642,-14.0759
block_1,5880,9,10131,1,-19.0395,2.31301,13.1973,12.8192,-10.8797
block_1,5881,9,10132,1,-18.4895,2.65739,11.9502,12.6567,-11.7337
block_1,5882,9,10133,1,-18.0978,2.19835,12.8769,3.28175,-9.92495
block_1,5883,9,10134,1,-17.4698,2.52687,11.7062,3.18861,-10.6141
block_1,5884,9,10135,1,-17.7118,2.88785,10.5227,12.5306,-12.3341
block_1,5885,9,10136,1,-16.7157,2.96461,8.97521,12.4458,-12.6199
block_1,5886,9,10137,1,-16.6552,2.75285,10.3912,3.12463,-11.0889
block_1,5887,9,10138,1,-15.665,2.84714,8.98098,3.09313,-11.305
block_1,5888,9,10139,1,-10.8155,-10.505,0.0331818,-10.505,-0.904386
block_1,5889,9,10140,1,-10.9761,-10.5049,0.077296,-10.5049,-0.904254
block_1,5890,9,10141,1,-31.9892,-31.8944,0.0329878,-31.8944,-0.992179
block_1,5891,9,10142,1,-32.0316,-31.8939,0.0768342,-31.8941,-0.991773
block_1,5892,9,10143,1,-10.99,-10.5046,0.125534,-10.5047,-0.904025
block_1,5893,9,10144,1,-10.9944,-10.5041,0.173956,-10.5044,-0.903717
block_1,5894,9,10145,1,-32.0344,-31.893,0.124759,-31.8935,-0.991071
block_1,5895,9,10146,1,-32.0344,-31.8916,0.172835,-31.8926,-0.990131
block_1,5896,9,10147,1,-53.341,-53.285,0.0326016,-53.2851,-1.0792
block_1,5897,9,10148,1,-53.3653,-53.2842,0.0759138,-53.2845,-1.07849
block_1,5898,9,10149,1,-74.7174,-74.6777,0.0320308,-74.6778,-1.16494
block_1,5899,9,10150,1,-74.7341,-74.6766,0.0745492,-74.677,-1.16388
block_1,5900,9,10151,1,-53.3659,-53.2827,0.123209,-53.2835,-1.07727
block_1,5901,9,10152,1,-53.3644,-53.2804,0.170589,-53.282,-1.07564
block_1,5902,9,10153,1,-74.7335,-74.6745,0.1209,-74.6756,-1.16205
block_1,5903,9,10154,1,-74.7309,-74.6713,0.167229,-74.6735,-1.15962
block_1,5904,9,10155,1,-10.9968,-10.5035,0.222038,-10.5041,-0.903359
block_1,5905,9,10156,1,-10.9986,-10.5027,0.269616,-10.5036,-0.902979
block_1,5906,9,10157,1,-32.0335,-31.8897,0.220541,-31.8914,-0.989038
block_1,5907,9,10158,1,-32.032,-31.8873,0.267719,-31.89,-0.987881
block_1,5908,9,10159,1,-11.0001,-10.5017,0.316647,-10.503,-0.902602
block_1,5909,9,10160,1,-11.0016,-10.5005,0.363151,-10.5023,-0.90225
block_1,5910,9,10161,1,-32.0299,-31.8843,0.314332,-31.8882,-0.986741
block_1,5911,9,10162,1,-32.0273,-31.8806,0.36041,-31.8862,-0.985678
block_1,5912,9,10163,1,-53.3618,-53.2772,0.217537,-53.2801,-1.07375
block_1,5913,9,10164,1,-53.3583,-53.2731,0.263903,-53.2776,-1.07178
block_1,5914,9,10165,1,-74.7268,-74.6668,0.213022,-74.6707,-1.15685
block_1,5915,9,10166,1,-74.7214,-74.6611,0.258154,-74.6673,-1.15397
block_1,5916,9,10167,1,-53.3537,-53.268,0.309672,-53.2747,-1.06984
block_1,5917,9,10168,1,-53.3483,-53.262,0.354893,-53.2713,-1.06805
block_1,5918,9,10169,1,-74.7146,-74.6539,0.302639,-74.6632,-1.15119
block_1,5919,9,10170,1,-74.7064,-74.6453,0.346561,-74.6584,-1.14865
block_1,5920,9,10171,1,-96.1041,-96.0734,0.0312887,-96.0735,-1.24893
block_1,5921,9,10172,1,-96.1165,-96.072,0.0727651,-96.0724,-1.24743
block_1,5922,9,10173,1,-117.498,-117.473,0.0303961,-117.473,-1.33074
block_1,5923,9,10174,1,-117.508,-117.471,0.0706,-117.472,-1.32865
block_1,5924,9,10175,1,-96.1151,-96.0693,0.117859,-96.0706,-1.24485
block_1,5925,9,10176,1,-96.1114,-96.0652,0.162766,-96.0679,-1.24147
block_1,5926,9,10177,1,-117.505,-117.468,0.114123,-117.469,-1.32511
block_1,5927,9,10178,1,-117.501,-117.463,0.157217,-117.466,-1.32054
block_1,5928,9,10179,1,-138.898,-138.877,0.0293866,-138.877,-1.40999
block_1,5929,9,10180,1,-138.906,-138.875,0.068113,-138.876,-1.40711
block_1,5930,9,10181,1,-160.306,-160.287,0.0283138,-160.288,-1.48644
block_1,5931,9,10182,1,-160.312,-160.285,0.0653949,-160.286,-1.48242
block_1,5932,9,10183,1,-138.903,-138.872,0.109745,-138.873,-1.40227
block_1,5933,9,10184,1,-138.898,-138.866,0.150593,-138.869,-1.39615
block_1,5934,9,10185,1,-160.309,-160.281,0.104793,-160.283,-1.47576
block_1,5935,9,10186,1,-160.302,-160.274,0.142884,-160.278,-1.46757
block_1,5936,9,10187,1,-96.1059,-96.0594,0.206988,-96.0643,-1.23766
block_1,5937,9,10188,1,-96.0986,-96.0519,0.250437,-96.0599,-1.23377
block_1,5938,9,10189,1,-117.494,-117.456,0.199415,-117.462,-1.31548
block_1,5939,9,10190,1,-117.485,-117.447,0.240696,-117.456,-1.31042
block_1,5940,9,10191,1,-96.0896,-96.0426,0.29318,-96.0545,-1.23008
block_1,5941,9,10192,1,-96.0787,-96.0314,0.335349,-96.0483,-1.22676
block_1,5942,9,10193,1,-117.473,-117.435,0.281209,-117.45,-1.30573
block_1,5943,9,10194,1,-117.46,-117.421,0.321157,-117.442,-1.30162
block_1,5944,9,10195,1,-138.889,-138.857,0.190254,-138.864,-1.38955
block_1,5945,9,10196,1,-138.878,-138.846,0.228827,-138.857,-1.38314
block_1,5946,9,10197,1,-160.292,-160.264,0.1794,-160.271,-1.45904
block_1,5947,9,10198,1,-160.279,-160.251,0.214647,-160.264,-1.45107
block_1,5948,9,10199,1,-138.864,-138.832,0.266586,-138.849,-1.37738
block_1,5949,9,10200,1,-138.849,-138.815,0.303831,-138.84,-1.37248
block_1,5950,9,10201,1,-160.262,-160.234,0.249092,-160.254,-1.44419
block_1,5951,9,10202,1,-160.247,-160.214,0.283153,-160.243,-1.43855
block_1,5952,9,10203,1,-11.0032,-10.4991,0.409186,-10.5016,-0.901934
block_1,5953,9,10204,1,-11.0048,-10.4975,0.454827,-10.5007,-0.901662
block_1,5954,9,10205,1,-32.0242,-31.8764,0.40602,-31.8839,-0.984729
block_1,5955,9,10206,1,-32.0207,-31.8716,0.451244,-31.8813,-0.983914
block_1,5956,9,10207,1,-11.0064,-10.4957,0.500156,-10.4998,-0.901434
block_1,5957,9,10208,1,-11.0082,-10.4938,0.545251,-10.4987,-0.901249
block_1,5958,9,10209,1,-32.0167,-31.8663,0.496166,-31.8784,-0.983235
block_1,5959,9,10210,1,-32.0123,-31.8604,0.540866,-31.8753,-0.982684
block_1,5960,9,10211,1,-53.3418,-53.2549,0.399649,-53.2674,-1.06647
block_1,5961,9,10212,1,-53.3345,-53.2469,0.444034,-53.2631,-1.06511
block_1,5962,9,10213,1,-74.6969,-74.6353,0.390029,-74.653,-1.14643
block_1,5963,9,10214,1,-74.686,-74.624,0.433157,-74.6468,-1.14456
block_1,5964,9,10215,1,-53.3263,-53.2379,0.488142,-53.2583,-1.064
block_1,5965,9,10216,1,-53.3173,-53.228,0.532052,-53.253,-1.06309
block_1,5966,9,10217,1,-74.6739,-74.6114,0.476044,-74.6401,-1.14302
block_1,5967,9,10218,1,-74.6625,-74.5975,0.518775,-74.6327,-1.1418
block_1,5968,9,10219,1,-11.01,-10.4917,0.590181,-10.4976,-0.901102
block_1,5969,9,10220,1,-11.012,-10.4894,0.635003,-10.4964,-0.900987
block_1,5970,9,10221,1,-32.0074,-31.854,0.585413,-31.8719,-0.982246
block_1,5971,9,10222,1,-32.0022,-31.847,0.629863,-31.8682,-0.981906
block_1,5972,9,10223,1,-11.0142,-10.4869,0.679763,-10.4951,-0.900899
block_1,5973,9,10224,1,-11.0164,-10.4843,0.724497,-10.4937,-0.900833
block_1,5974,9,10225,1,-31.9966,-31.8396,0.67426,-31.8642,-0.981645
block_1,5975,9,10226,1,-31.9906,-31.8317,0.718638,-31.86,-0.981449
block_1,5976,9,10227,1,-53.3075,-53.2173,0.575834,-53.2473,-1.06238
block_1,5977,9,10228,1,-53.2975,-53.2057,0.61954,-53.2411,-1.06183
block_1,5978,9,10229,1,-74.652,-74.5824,0.561415,-74.6246,-1.14084
block_1,5979,9,10230,1,-74.641,-74.5662,0.60401,-74.616,-1.1401
block_1,5980,9,10231,1,-53.2883,-53.1933,0.663211,-53.2345,-1.06141
block_1,5981,9,10232,1,-53.2795,-53.1802,0.706876,-53.2274,-1.06109
block_1,5982,9,10233,1,-74.6292,-74.5488,0.646597,-74.6067,-1.13954
block_1,5983,9,10234,1,-74.6166,-74.5303,0.689198,-74.5968,-1.13912
block_1,5984,9,10235,1,-96.066,-96.0184,0.377092,-96.0413,-1.22391
block_1,5985,9,10236,1,-96.0528,-96.0037,0.418543,-96.0334,-1.22154
block_1,5986,9,10237,1,-117.446,-117.405,0.360734,-117.433,-1.29816
block_1,5987,9,10238,1,-117.432,-117.387,0.400099,-117.423,-1.29535
block_1,5988,9,10239,1,-96.0409,-95.9874,0.459813,-96.0246,-1.21963
block_1,5989,9,10240,1,-96.0282,-95.9694,0.500984,-96.015,-1.21812
block_1,5990,9,10241,1,-117.418,-117.367,0.439367,-117.413,-1.29311
block_1,5991,9,10242,1,-117.402,-117.345,0.478611,-117.401,-1.29137
block_1,5992,9,10243,1,-138.835,-138.796,0.34081,-138.83,-1.36847
block_1,5993,9,10244,1,-138.819,-138.774,0.377697,-138.818,-1.36528
block_1,5994,9,10245,1,-160.231,-160.191,0.317124,-160.231,-1.43409
block_1,5995,9,10246,1,-160.218,-160.166,0.351174,-160.218,-1.43064
block_1,5996,9,10247,1,-138.805,-138.75,0.414599,-138.805,-1.3628
block_1,5997,9,10248,1,-138.791,-138.723,0.451573,-138.791,-1.36091
block_1,5998,9,10249,1,-160.203,-160.137,0.385381,-160.203,-1.42803
block_1,5999,9,10250,1,-160.186,-160.107,0.419771,-160.186,-1.42607
block_1,6000,9,10251,1,-96.0144,-95.95,0.542114,-96.0047,-1.21695
block_1,6001,9,10252,1,-95.9994,-95.929,0.583243,-95.9935,-1.21605
block_1,6002,9,10253,1,-117.388,-117.321,0.517879,-117.388,-1.29004
block_1,6003,9,10254,1,-117.374,-117.295,0.557195,-117.374,-1.28904
block_1,6004,9,10255,1,-95.9844,-95.9066,0.624395,-95.9815,-1.21538
block_1,6005,9,10256,1,-95.9697,-95.8828,0.665585,-95.9687,-1.21488
block_1,6006,9,10257,1,-117.36,-117.268,0.596572,-117.36,-1.28828
block_1,6007,9,10258,1,-117.344,-117.238,0.636014,-117.344,-1.28773
block_1,6008,9,10259,1,-138.776,-138.695,0.488644,-138.776,-1.35948
block_1,6009,9,10260,1,-138.76,-138.665,0.525819,-138.76,-1.35841
block_1,6010,9,10261,1,-160.169,-160.074,0.454338,-160.169,-1.42461
block_1,6011,9,10262,1,-160.15,-160.039,0.489063,-160.15,-1.42354
block_1,6012,9,10263,1,-138.742,-138.632,0.563095,-138.742,-1.35762
block_1,6013,9,10264,1,-138.723,-138.598,0.600461,-138.723,-1.35704
block_1,6014,9,10265,1,-160.129,-160.001,0.523924,-160.129,-1.42275
block_1,6015,9,10266,1,-160.108,-159.961,0.558899,-160.108,-1.42218
block_1,6016,9,10267,1,-181.721,-181.705,0.0272691,-181.705,-1.56001
block_1,6017,9,10268,1,-181.726,-181.703,0.0625857,-181.703,-1.55425
block_1,6018,9,10269,1,-203.145,-203.131,0.0264021,-203.131,-1.63091
block_1,6019,9,10270,1,-203.15,-203.129,0.0599091,-203.129,-1.6224
block_1,6020,9,10271,1,-181.722,-181.698,0.0993496,-181.699,-1.54496
block_1,6021,9,10272,1,-181.714,-181.69,0.134027,-181.693,-1.53394
block_1,6022,9,10273,1,-203.145,-203.124,0.0934868,-203.124,-1.60912
block_1,6023,9,10274,1,-203.136,-203.115,0.12381,-203.117,-1.59415
block_1,6024,9,10275,1,-224.581,-224.568,0.0260335,-224.568,-1.69988
block_1,6025,9,10276,1,-224.585,-224.566,0.0576974,-224.565,-1.68673
block_1,6026,9,10277,1,-246.031,-246.019,0.0265554,-246.019,-1.76864
block_1,6027,9,10278,1,-246.035,-246.018,0.0565334,-246.015,-1.74705
block_1,6028,9,10279,1,-224.58,-224.561,0.0871809,-224.559,-1.66716
block_1,6029,9,10280,1,-224.569,-224.549,0.111659,-224.551,-1.64668
block_1,6030,9,10281,1,-246.029,-246.011,0.0799454,-246.008,-1.71718
block_1,6031,9,10282,1,-246.014,-245.996,0.0960753,-245.997,-1.68918
block_1,6032,9,10283,1,-181.703,-181.678,0.166631,-181.686,-1.52298
block_1,6033,9,10284,1,-181.687,-181.662,0.197838,-181.677,-1.51326
block_1,6034,9,10285,1,-203.122,-203.1,0.151497,-203.109,-1.5802
block_1,6035,9,10286,1,-203.103,-203.081,0.177848,-203.098,-1.56865
block_1,6036,9,10287,1,-181.67,-181.642,0.228384,-181.666,-1.50528
block_1,6037,9,10288,1,-181.653,-181.619,0.258812,-181.653,-1.49905
block_1,6038,9,10289,1,-203.085,-203.057,0.203946,-203.085,-1.55977
block_1,6039,9,10290,1,-203.07,-203.03,0.23039,-203.07,-1.55322
block_1,6040,9,10291,1,-224.551,-224.531,0.133084,-224.541,-1.62923
block_1,6041,9,10292,1,-224.529,-224.507,0.153763,-224.528,-1.6161
block_1,6042,9,10293,1,-245.99,-245.972,0.109626,-245.984,-1.66834
block_1,6043,9,10294,1,-245.968,-245.942,0.124133,-245.968,-1.65455
block_1,6044,9,10295,1,-224.513,-224.479,0.175045,-224.513,-1.60681
block_1,6045,9,10296,1,-224.496,-224.447,0.197377,-224.496,-1.60038
block_1,6046,9,10297,1,-245.95,-245.908,0.140773,-245.95,-1.64576
block_1,6047,9,10298,1,-245.93,-245.871,0.15922,-245.93,-1.64003
block_1,6048,9,10299,1,-267.502,-267.491,0.0301764,-267.49,-1.8408
block_1,6049,9,10300,1,-267.507,-267.491,0.0566202,-267.485,-1.80236
block_1,6050,9,10301,1,-289.008,-288.996,0.0332231,-289.003,-1.92284
block_1,6051,9,10302,1,-289.01,-288.995,0.0589887,-288.986,-1.84833
block_1,6052,9,10303,1,-267.496,-267.48,0.0697838,-267.474,-1.75516
block_1,6053,9,10304,1,-267.472,-267.456,0.073338,-267.459,-1.71813
block_1,6054,9,10305,1,-288.99,-288.974,0.0482122,-288.967,-1.77158
block_1,6055,9,10306,1,-288.943,-288.923,0.0334917,-288.941,-1.72915
block_1,6056,9,10307,1,-310.61,-310.6,0.0901653,-310.561,-2.03657
block_1,6057,9,10308,1,-310.604,-310.59,0.0392227,-310.557,-1.8527
block_1,6058,9,10309,1,-332.892,-332.553,-0.185409,-332.892,-2.00703
block_1,6059,9,10310,1,-332.308,-332.027,-0.215612,-332.308,-1.74944
block_1,6060,9,10311,1,-310.502,-310.465,-0.0237827,-310.5,-1.74979
block_1,6061,9,10312,1,-310.452,-310.381,-0.0317552,-310.452,-1.72877
block_1,6062,9,10313,1,-332.107,-331.878,-0.161596,-332.107,-1.7293
block_1,6063,9,10314,1,-331.998,-331.805,-0.122941,-331.998,-1.72267
block_1,6064,9,10315,1,-267.442,-267.421,0.0777441,-267.441,-1.69579
block_1,6065,9,10316,1,-267.421,-267.382,0.0872118,-267.421,-1.68355
block_1,6066,9,10317,1,-288.915,-288.873,0.033754,-288.915,-1.71219
block_1,6067,9,10318,1,-288.888,-288.826,0.0413604,-288.888,-1.70324
block_1,6068,9,10319,1,-267.399,-267.342,0.100191,-267.399,-1.67626
block_1,6069,9,10320,1,-267.376,-267.3,0.11546,-267.376,-1.67185
block_1,6070,9,10321,1,-288.861,-288.781,0.0526993,-288.861,-1.69852
block_1,6071,9,10322,1,-288.833,-288.735,0.0658954,-288.833,-1.69574
block_1,6072,9,10323,1,-310.409,-310.32,-0.0248994,-310.409,-1.7191
block_1,6073,9,10324,1,-310.371,-310.269,-0.0138425,-310.371,-1.71513
block_1,6074,9,10325,1,-331.927,-331.752,-0.0965229,-331.927,-1.72146
block_1,6075,9,10326,1,-331.873,-331.707,-0.0769287,-331.873,-1.7205
block_1,6076,9,10327,1,-310.336,-310.221,-0.00160399,-310.336,-1.71296
block_1,6077,9,10328,1,-310.302,-310.174,0.0107645,-310.302,-1.71179
block_1,6078,9,10329,1,-331.827,-331.662,-0.0616355,-331.827,-1.72017
block_1,6079,9,10330,1,-331.786,-331.616,-0.0491888,-331.786,-1.71995
block_1,6080,9,10331,1,-181.639,-181.592,0.289421,-181.639,-1.49431
block_1,6081,9,10332,1,-181.623,-181.563,0.320334,-181.623,-1.49077
block_1,6082,9,10333,1,-203.054,-202.999,0.257392,-203.054,-1.54845
block_1,6083,9,10334,1,-203.036,-202.965,0.284959,-203.036,-1.54502
block_1,6084,9,10335,1,-181.606,-181.53,0.35157,-181.606,-1.48815
block_1,6085,9,10336,1,-181.587,-181.495,0.383103,-181.587,-1.48623
block_1,6086,9,10337,1,-203.016,-202.929,0.313016,-203.016,-1.54255
block_1,6087,9,10338,1,-202.995,-202.889,0.341467,-202.995,-1.54078
block_1,6088,9,10339,1,-224.477,-224.412,0.220699,-224.477,-1.59593
block_1,6089,9,10340,1,-224.456,-224.374,0.244831,-224.456,-1.59284
block_1,6090,9,10341,1,-245.909,-245.831,0.179021,-245.909,-1.63625
block_1,6091,9,10342,1,-245.886,-245.789,0.199768,-245.886,-1.63372
block_1,6092,9,10343,1,-224.434,-224.333,0.269579,-224.434,-1.59068
block_1,6093,9,10344,1,-224.41,-224.289,0.294777,-224.41,-1.58916
block_1,6094,9,10345,1,-245.861,-245.744,0.221159,-245.861,-1.63199
block_1,6095,9,10346,1,-245.834,-245.696,0.242979,-245.834,-1.6308
block_1,6096,9,10347,1,-181.567,-181.458,0.414888,-181.567,-1.48482
block_1,6097,9,10348,1,-181.545,-181.418,0.446877,-181.545,-1.4838
block_1,6098,9,10349,1,-202.972,-202.847,0.370225,-202.972,-1.53951
block_1,6099,9,10350,1,-202.948,-202.802,0.399214,-202.948,-1.5386
block_1,6100,9,10351,1,-181.522,-181.375,0.479027,-181.522,-1.48307
block_1,6101,9,10352,1,-181.498,-181.33,0.511304,-181.498,-1.48254
block_1,6102,9,10353,1,-202.922,-202.755,0.428374,-202.922,-1.53795
block_1,6103,9,10354,1,-202.894,-202.704,0.457658,-202.894,-1.53748
block_1,6104,9,10355,1,-224.385,-224.243,0.320298,-224.385,-1.58808
block_1,6105,9,10356,1,-224.357,-224.193,0.346044,-224.357,-1.58733
block_1,6106,9,10357,1,-245.805,-245.645,0.265077,-245.805,-1.62998
block_1,6107,9,10358,1,-245.775,-245.591,0.287354,-245.775,-1.62941
block_1,6108,9,10359,1,-224.328,-224.141,0.371945,-224.328,-1.58679
block_1,6109,9,10360,1,-224.298,-224.085,0.397951,-224.298,-1.58641
block_1,6110,9,10361,1,-245.743,-245.533,0.309737,-245.743,-1.629
block_1,6111,9,10362,1,-245.709,-245.473,0.332182,-245.709,-1.62872
block_1,6112,9,10363,1,-267.351,-267.257,0.132137,-267.351,-1.66905
block_1,6113,9,10364,1,-267.324,-267.21,0.149673,-267.324,-1.66723
block_1,6114,9,10365,1,-288.804,-288.688,0.0800182,-288.804,-1.69406
block_1,6115,9,10366,1,-288.774,-288.638,0.0945774,-288.774,-1.69299
block_1,6116,9,10367,1,-267.296,-267.161,0.16772,-267.296,-1.66602
block_1,6117,9,10368,1,-267.266,-267.109,0.186065,-267.266,-1.6652
block_1,6118,9,10369,1,-288.742,-288.586,0.109314,-288.742,-1.6923
block_1,6119,9,10370,1,-288.709,-288.53,0.124088,-288.709,-1.69184
block_1,6120,9,10371,1,-310.269,-310.125,0.0228952,-310.269,-1.71108
block_1,6121,9,10372,1,-310.234,-310.073,0.0346766,-310.234,-1.71065
block_1,6122,9,10373,1,-331.746,-331.567,-0.038719,-331.746,-1.71983
block_1,6123,9,10374,1,-331.707,-331.514,-0.0296764,-331.707,-1.71976
block_1,6124,9,10375,1,-310.199,-310.018,0.046093,-310.199,-1.71037
block_1,6125,9,10376,1,-310.162,-309.959,0.0571653,-310.162,-1.71018
block_1,6126,9,10377,1,-331.668,-331.457,-0.0216974,-331.668,-1.71971
block_1,6127,9,10378,1,-331.627,-331.396,-0.0145321,-331.627,-1.71968
block_1,6128,9,10379,1,-267.235,-267.054,0.204571,-267.235,-1.66465
block_1,6129,9,10380,1,-267.202,-266.996,0.223155,-267.202,-1.66426
block_1,6130,9,10381,1,-288.674,-288.471,0.138825,-288.674,-1.69153
block_1,6131,9,10382,1,-288.638,-288.408,0.153486,-288.638,-1.69131
block_1,6132,9,10383,1,-267.166,-266.933,0.241763,-267.166,-1.664
block_1,6133,9,10384,1,-267.129,-266.868,0.260363,-267.129,-1.66381
block_1,6134,9,10385,1,-288.599,-288.341,0.168053,-288.599,-1.69117
block_1,6135,9,10386,1,-288.559,-288.271,0.182519,-288.559,-1.69107
block_1,6136,9,10387,1,-310.124,-309.896,0.0679265,-310.124,-1.71006
block_1,6137,9,10388,1,-310.084,-309.829,0.0784117,-310.084,-1.70998
block_1,6138,9,10389,1,-331.586,-331.33,-0.00800345,-331.586,-1.71966
block_1,6139,9,10390,1,-331.542,-331.26,-0.00198205,-331.542,-1.71965
block_1,6140,9,10391,1,-310.042,-309.758,0.0886542,-310.042,-1.70992
block_1,6141,9,10392,1,-309.999,-309.683,0.0986842,-309.999,-1.70988
block_1,6142,9,10393,1,-331.497,-331.184,0.00362857,-331.497,-1.71964
block_1,6143,9,10394,1,-331.449,-331.104,0.00890196,-331.449,-1.71963
block_1,6144,9,10395,1,-11.0189,-10.4816,0.769229,-10.4922,-0.900783
block_1,6145,9,10396,1,-11.0214,-10.4787,0.813979,-10.4906,-0.900747
block_1,6146,9,10397,1,-31.9843,-31.8234,0.76302,-31.8555,-0.981302
block_1,6147,9,10398,1,-31.9777,-31.8145,0.807422,-31.8508,-0.981195
block_1,6148,9,10399,1,-11.0242,-10.4756,0.858758,-10.489,-0.900721
block_1,6149,9,10400,1,-11.0271,-10.4723,0.903574,-10.4872,-0.900702
block_1,6150,9,10401,1,-31.9722,-31.8052,0.851857,-31.8457,-0.981117
block_1,6151,9,10402,1,-31.9669,-31.7955,0.89633,-31.8405,-0.981061
block_1,6152,9,10403,1,-53.271,-53.1662,0.750555,-53.2199,-1.06086
block_1,6153,9,10404,1,-53.262,-53.1514,0.794263,-53.212,-1.06069
block_1,6154,9,10405,1,-74.6031,-74.5107,0.731827,-74.5862,-1.13881
block_1,6155,9,10406,1,-74.5888,-74.49,0.774495,-74.5751,-1.13858
block_1,6156,9,10407,1,-53.2525,-53.1359,0.838008,-53.2036,-1.06056
block_1,6157,9,10408,1,-53.2423,-53.1196,0.881793,-53.1948,-1.06047
block_1,6158,9,10409,1,-74.5737,-74.4682,0.817205,-74.5634,-1.13841
block_1,6159,9,10410,1,-74.5581,-74.4454,0.859961,-74.551,-1.1383
block_1,6160,9,10411,1,-11.0302,-10.469,0.94843,-10.4854,-0.900689
block_1,6161,9,10412,1,-11.0335,-10.4654,0.993328,-10.4835,-0.90068
block_1,6162,9,10413,1,-31.9614,-31.7852,0.940844,-31.8349,-0.981021
block_1,6163,9,10414,1,-31.9559,-31.7745,0.9854,-31.8292,-0.980994
block_1,6164,9,10415,1,-11.0369,-10.4617,1.03827,-10.4815,-0.900674
block_1,6165,9,10416,1,-11.0406,-10.4579,1.08325,-10.4794,-0.90067
block_1,6166,9,10417,1,-31.9517,-31.7634,1.03,-31.8231,-0.980975
block_1,6167,9,10418,1,-31.9472,-31.7517,1.07464,-31.8168,-0.980963
block_1,6168,9,10419,1,-53.2316,-53.1025,0.925622,-53.1856,-1.06041
block_1,6169,9,10420,1,-53.2204,-53.0846,0.969494,-53.1759,-1.06036
block_1,6170,9,10421,1,-74.5435,-74.4215,0.902762,-74.5381,-1.13822
block_1,6171,9,10422,1,-74.5282,-74.3965,0.945605,-74.5245,-1.13816
block_1,6172,9,10423,1,-53.2085,-53.066,1.01341,-53.1658,-1.06033
block_1,6173,9,10424,1,-53.1961,-53.0466,1.05736,-53.1553,-1.06031
block_1,6174,9,10425,1,-74.5123,-74.3703,0.98849,-74.5104,-1.13812
block_1,6175,9,10426,1,-74.4956,-74.3432,1.03141,-74.4956,-1.13809
block_1,6176,9,10427,1,-95.9551,-95.8576,0.706821,-95.9551,-1.21451
block_1,6177,9,10428,1,-95.9408,-95.831,0.748107,-95.9408,-1.21424
block_1,6178,9,10429,1,-117.327,-117.208,0.675521,-117.327,-1.28732
block_1,6179,9,10430,1,-117.31,-117.175,0.715088,-117.31,-1.28703
block_1,6180,9,10431,1,-95.9257,-95.803,0.789443,-95.9257,-1.21404
block_1,6181,9,10432,1,-95.9098,-95.7736,0.830828,-95.9098,-1.21391
block_1,6182,9,10433,1,-117.291,-117.141,0.754713,-117.291,-1.28682
block_1,6183,9,10434,1,-117.272,-117.105,0.794389,-117.272,-1.28667
block_1,6184,9,10435,1,-138.704,-138.561,0.637908,-138.704,-1.35662
block_1,6185,9,10436,1,-138.683,-138.523,0.675426,-138.683,-1.35632
block_1,6186,9,10437,1,-160.085,-159.919,0.593966,-160.085,-1.42177
block_1,6187,9,10438,1,-160.061,-159.875,0.629109,-160.061,-1.42148
block_1,6188,9,10439,1,-138.661,-138.482,0.713006,-138.661,-1.3561
block_1,6189,9,10440,1,-138.638,-138.44,0.750637,-138.638,-1.35595
block_1,6190,9,10441,1,-160.036,-159.828,0.664314,-160.036,-1.42127
block_1,6191,9,10442,1,-160.009,-159.779,0.699569,-160.009,-1.42112
block_1,6192,9,10443,1,-95.8931,-95.7428,0.872259,-95.8931,-1.21381
block_1,6193,9,10444,1,-95.8757,-95.7107,0.913734,-95.8757,-1.21374
block_1,6194,9,10445,1,-117.251,-117.067,0.834111,-117.251,-1.28656
block_1,6195,9,10446,1,-117.23,-117.028,0.873876,-117.23,-1.28649
block_1,6196,9,10447,1,-95.8575,-95.6771,0.955248,-95.8575,-1.2137
block_1,6197,9,10448,1,-95.8385,-95.6421,0.996799,-95.8385,-1.21367
block_1,6198,9,10449,1,-117.208,-116.987,0.913679,-117.208,-1.28644
block_1,6199,9,10450,1,-117.185,-116.944,0.953515,-117.185,-1.28641
block_1,6200,9,10451,1,-138.614,-138.395,0.788314,-138.614,-1.35584
block_1,6201,9,10452,1,-138.589,-138.349,0.826031,-138.589,-1.35577
block_1,6202,9,10453,1,-159.981,-159.728,0.734865,-159.981,-1.42102
block_1,6203,9,10454,1,-159.952,-159.675,0.770195,-159.952,-1.42096
block_1,6204,9,10455,1,-138.562,-138.301,0.863781,-138.562,-1.35572
block_1,6205,9,10456,1,-138.535,-138.25,0.90156,-138.535,-1.35569
block_1,6206,9,10457,1,-159.921,-159.619,0.805553,-159.921,-1.42091
block_1,6207,9,10458,1,-159.89,-159.56,0.840934,-159.89,-1.42088
block_1,6208,9,10459,1,-11.0444,-10.4539,1.12827,-10.4772,-0.900667
block_1,6209,9,10460,1,-11.0484,-10.4498,1.17332,-10.475,-0.900666
block_1,6210,9,10461,1,-31.9423,-31.7396,1.11931,-31.8102,-0.980955
block_1,6211,9,10462,1,-31.9372,-31.7271,1.16403,-31.8034,-0.98095
block_1,6212,9,10463,1,-11.0526,-10.4454,1.21841,-10.4726,-0.900665
block_1,6213,9,10464,1,-11.0569,-10.441,1.26353,-10.4702,-0.900665
block_1,6214,9,10465,1,-31.9318,-31.714,1.20877,-31.7964,-0.980947
block_1,6215,9,10466,1,-31.9261,-31.7005,1.25355,-31.789,-0.980946
block_1,6216,9,10467,1,-53.1832,-53.0264,1.10135,-53.1443,-1.0603
block_1,6217,9,10468,1,-53.1697,-53.0054,1.14537,-53.133,-1.06029
block_1,6218,9,10469,1,-74.4803,-74.3149,1.07437,-74.4803,-1.13808
block_1,6219,9,10470,1,-74.4643,-74.2855,1.11737,-74.4643,-1.13807
block_1,6220,9,10471,1,-53.1556,-52.9836,1.18943,-53.1211,-1.06029
block_1,6221,9,10472,1,-53.1409,-52.9611,1.23352,-53.1089,-1.06029
block_1,6222,9,10473,1,-74.4477,-74.255,1.16039,-74.4477,-1.13806
block_1,6223,9,10474,1,-74.4306,-74.2234,1.20344,-74.4306,-1.13806
block_1,6224,9,10475,1,-11.0633,-10.4364,1.30868,-10.4677,-0.900665
block_1,6225,9,10476,1,-11.0702,-10.4316,1.35385,-10.4651,-0.900666
block_1,6226,9,10477,1,-31.9201,-31.6865,1.29835,-31.7814,-0.980946
block_1,6227,9,10478,1,-31.9138,-31.6721,1.34318,-31.7736,-0.980946
block_1,6228,9,10479,1,-11.0772,-10.4267,1.39905,-10.4624,-0.900666
block_1,6229,9,10480,1,-11.0843,-10.4216,1.44427,-10.4597,-0.900667
block_1,6230,9,10481,1,-31.9071,-31.6571,1.38803,-31.7655,-0.980947
block_1,6231,9,10482,1,-31.9002,-31.6417,1.43291,-31.7571,-0.980947
block_1,6232,9,10483,1,-53.1257,-52.9377,1.27763,-53.0962,-1.06029
block_1,6233,9,10484,1,-53.1099,-52.9136,1.32177,-53.0831,-1.06029
block_1,6234,9,10485,1,-74.4128,-74.1907,1.24651,-74.4128,-1.13806
block_1,6235,9,10486,1,-74.3945,-74.1569,1.28961,-74.3945,-1.13806
block_1,6236,9,10487,1,-53.0935,-52.8887,1.36593,-53.0696,-1.06029
block_1,6237,9,10488,1,-53.0766,-52.8629,1.41011,-53.0556,-1.06029
block_1,6238,9,10489,1,-74.3755,-74.1219,1.33273,-74.3755,-1.13806
block_1,6239,9,10490,1,-74.3559,-74.0859,1.37586,-74.3559,-1.13806
block_1,6240,9,10491,1,-95.8187,-95.6057,1.03838,-95.8187,-1.21365
block_1,6241,9,10492,1,-95.7982,-95.568,1.08,-95.7982,-1.21364
block_1,6242,9,10493,1,-117.16,-116.9,0.993381,-117.16,-1.28639
block_1,6243,9,10494,1,-117.135,-116.854,1.03327,-117.135,-1.28638
block_1,6244,9,10495,1,-95.7769,-95.5287,1.12164,-95.7769,-1.21363
block_1,6245,9,10496,1,-95.7548,-95.4881,1.16331,-95.7548,-1.21363
block_1,6246,9,10497,1,-117.109,-116.806,1.07319,-117.109,-1.28637
block_1,6247,9,10498,1,-117.082,-116.756,1.11313,-117.082,-1.28637
block_1,6248,9,10499,1,-138.506,-138.198,0.939365,-138.506,-1.35567
block_1,6249,9,10500,1,-138.476,-138.143,0.977193,-138.476,-1.35566
block_1,6250,9,10501,1,-159.857,-159.5,0.876336,-159.857,-1.42086
block_1,6251,9,10502,1,-159.822,-159.437,0.911753,-159.822,-1.42085
block_1,6252,9,10503,1,-138.446,-138.086,1.01504,-138.446,-1.35565
block_1,6253,9,10504,1,-138.414,-138.028,1.0529,-138.414,-1.35565
block_1,6254,9,10505,1,-159.787,-159.371,0.947186,-159.787,-1.42084
block_1,6255,9,10506,1,-159.75,-159.304,0.98263,-159.75,-1.42084
block_1,6256,9,10507,1,-95.732,-95.446,1.205,-95.732,-1.21363
block_1,6257,9,10508,1,-95.7083,-95.4026,1.24671,-95.7083,-1.21363
block_1,6258,9,10509,1,-117.054,-116.705,1.15309,-117.054,-1.28637
block_1,6259,9,10510,1,-117.025,-116.651,1.19306,-117.025,-1.28637
block_1,6260,9,10511,1,-95.6839,-95.3576,1.28844,-95.6839,-1.21363
block_1,6261,9,10512,1,-95.6588,-95.3113,1.33018,-95.6588,-1.21363
block_1,6262,9,10513,1,-116.996,-116.596,1.23306,-116.996,-1.28637
block_1,6263,9,10514,1,-116.965,-116.54,1.27306,-116.965,-1.28637
block_1,6264,9,10515,1,-138.381,-137.967,1.09078,-138.381,-1.35565
block_1,6265,9,10516,1,-138.346,-137.904,1.12868,-138.346,-1.35565
block_1,6266,9,10517,1,-159.712,-159.234,1.01809,-159.712,-1.42084
block_1,6267,9,10518,1,-159.672,-159.161,1.05355,-159.672,-1.42084
block_1,6268,9,10519,1,-138.311,-137.839,1.16659,-138.311,-1.35565
block_1,6269,9,10520,1,-138.275,-137.772,1.2045,-138.275,-1.35565
block_1,6270,9,10521,1,-159.632,-159.086,1.08903,-159.632,-1.42084
block_1,6271,9,10522,1,-159.589,-159.009,1.12451,-159.589,-1.42085
block_1,6272,9,10523,1,-181.472,-181.282,0.543678,-181.472,-1.48216
block_1,6273,9,10524,1,-181.444,-181.232,0.576126,-181.444,-1.48189
block_1,6274,9,10525,1,-202.865,-202.651,0.487032,-202.865,-1.53715
block_1,6275,9,10526,1,-202.834,-202.595,0.516471,-202.834,-1.53692
block_1,6276,9,10527,1,-181.416,-181.179,0.608631,-181.416,-1.4817
block_1,6277,9,10528,1,-181.385,-181.124,0.64118,-181.385,-1.48157
block_1,6278,9,10529,1,-202.802,-202.536,0.545953,-202.802,-1.53676
block_1,6279,9,10530,1,-202.768,-202.474,0.575467,-202.768,-1.53665
block_1,6280,9,10531,1,-224.265,-224.026,0.424024,-224.265,-1.58615
block_1,6281,9,10532,1,-224.231,-223.964,0.45014,-224.231,-1.58596
block_1,6282,9,10533,1,-245.673,-245.408,0.354655,-245.673,-1.62853
block_1,6283,9,10534,1,-245.636,-245.341,0.377137,-245.636,-1.62839
block_1,6284,9,10535,1,-224.195,-223.899,0.47628,-224.195,-1.58583
block_1,6285,9,10536,1,-224.158,-223.831,0.502432,-224.158,-1.58575
block_1,6286,9,10537,1,-245.596,-245.269,0.399614,-245.596,-1.6283
block_1,6287,9,10538,1,-245.555,-245.195,0.422077,-245.555,-1.62824
block_1,6288,9,10539,1,-181.354,-181.066,0.673761,-181.354,-1.48148
block_1,6289,9,10540,1,-181.32,-181.005,0.706369,-181.32,-1.48141
block_1,6290,9,10541,1,-202.733,-202.409,0.605002,-202.733,-1.53657
block_1,6291,9,10542,1,-202.695,-202.342,0.634551,-202.695,-1.53652
block_1,6292,9,10543,1,-181.286,-180.942,0.738996,-181.286,-1.48137
block_1,6293,9,10544,1,-181.25,-180.876,0.771638,-181.25,-1.48135
block_1,6294,9,10545,1,-202.657,-202.271,0.664108,-202.657,-1.53649
block_1,6295,9,10546,1,-202.616,-202.197,0.693671,-202.616,-1.53647
block_1,6296,9,10547,1,-224.118,-223.759,0.528588,-224.118,-1.58569
block_1,6297,9,10548,1,-224.077,-223.684,0.554742,-224.077,-1.58565
block_1,6298,9,10549,1,-245.512,-245.116,0.444522,-245.512,-1.6282
block_1,6299,9,10550,1,-245.467,-245.035,0.466946,-245.467,-1.62817
block_1,6300,9,10551,1,-224.034,-223.606,0.580892,-224.034,-1.58562
block_1,6301,9,10552,1,-223.99,-223.525,0.607034,-223.99,-1.58561
block_1,6302,9,10553,1,-245.42,-244.949,0.489349,-245.42,-1.62815
block_1,6303,9,10554,1,-245.371,-244.86,0.51173,-245.371,-1.62814
block_1,6304,9,10555,1,-267.09,-266.798,0.278936,-267.09,-1.66369
block_1,6305,9,10556,1,-267.049,-266.725,0.297471,-267.049,-1.6636
block_1,6306,9,10557,1,-288.516,-288.196,0.196885,-288.516,-1.691
block_1,6307,9,10558,1,-288.472,-288.117,0.211155,-288.472,-1.69096
block_1,6308,9,10559,1,-267.006,-266.647,0.315962,-267.006,-1.66354
block_1,6309,9,10560,1,-266.961,-266.566,0.334407,-266.961,-1.6635
block_1,6310,9,10561,1,-288.425,-288.034,0.225335,-288.425,-1.69092
block_1,6311,9,10562,1,-288.376,-287.946,0.239432,-288.376,-1.6909
block_1,6312,9,10563,1,-309.953,-309.603,0.108528,-309.953,-1.70986
block_1,6313,9,10564,1,-309.904,-309.518,0.118209,-309.904,-1.70984
block_1,6314,9,10565,1,-331.4,-331.019,0.0138952,-331.4,-1.71963
block_1,6315,9,10566,1,-331.348,-330.929,0.0186534,-331.348,-1.71963
block_1,6316,9,10567,1,-309.854,-309.429,0.127747,-309.854,-1.70983
block_1,6317,9,10568,1,-309.801,-309.336,0.13716,-309.801,-1.70982
block_1,6318,9,10569,1,-331.294,-330.834,0.0232124,-331.294,-1.71963
block_1,6319,9,10570,1,-331.237,-330.735,0.0276013,-331.237,-1.71963
block_1,6320,9,10571,1,-266.914,-266.481,0.352808,-266.914,-1.66347
block_1,6321,9,10572,1,-266.865,-266.393,0.371165,-266.865,-1.66346
block_1,6322,9,10573,1,-288.325,-287.855,0.253452,-288.325,-1.69089
block_1,6323,9,10574,1,-288.272,-287.759,0.267404,-288.272,-1.69088
block_1,6324,9,10575,1,-266.814,-266.3,0.389481,-266.814,-1.66345
block_1,6325,9,10576,1,-266.76,-266.203,0.407759,-266.76,-1.66344
block_1,6326,9,10577,1,-288.216,-287.659,0.281293,-288.216,-1.69088
block_1,6327,9,10578,1,-288.159,-287.555,0.295125,-288.159,-1.69088
block_1,6328,9,10579,1,-309.746,-309.237,0.146462,-309.746,-1.70982
block_1,6329,9,10580,1,-309.689,-309.135,0.155667,-309.689,-1.70982
block_1,6330,9,10581,1,-331.178,-330.63,0.031844,-331.178,-1.71963
block_1,6331,9,10582,1,-331.117,-330.52,0.03596,-331.117,-1.71963
block_1,6332,9,10583,1,-309.629,-309.027,0.164786,-309.629,-1.70982
block_1,6333,9,10584,1,-309.567,-308.915,0.17383,-309.567,-1.70982
block_1,6334,9,10585,1,-331.053,-330.406,0.0399658,-331.053,-1.71963
block_1,6335,9,10586,1,-330.986,-330.286,0.043875,-330.986,-1.71963
block_1,6336,9,10587,1,-181.212,-180.807,0.804293,-181.212,-1.48133
block_1,6337,9,10588,1,-181.174,-180.736,0.836957,-181.174,-1.48132
block_1,6338,9,10589,1,-202.574,-202.12,0.723237,-202.574,-1.53645
block_1,6339,9,10590,1,-202.531,-202.041,0.752804,-202.531,-1.53645
block_1,6340,9,10591,1,-181.133,-180.662,0.869629,-181.133,-1.48132
block_1,6341,9,10592,1,-181.091,-180.585,0.902308,-181.091,-1.48132
block_1,6342,9,10593,1,-202.486,-201.958,0.782371,-202.486,-1.53644
block_1,6343,9,10594,1,-202.439,-201.872,0.811938,-202.439,-1.53644
block_1,6344,9,10595,1,-223.943,-223.44,0.633169,-223.943,-1.5856
block_1,6345,9,10596,1,-223.895,-223.352,0.659295,-223.895,-1.58559
block_1,6346,9,10597,1,-245.32,-244.767,0.53409,-245.32,-1.62814
block_1,6347,9,10598,1,-245.267,-244.671,0.556431,-245.267,-1.62813
block_1,6348,9,10599,1,-223.845,-223.261,0.685412,-223.845,-1.58559
block_1,6349,9,10600,1,-223.794,-223.166,0.711521,-223.794,-1.58559
block_1,6350,9,10601,1,-245.212,-244.571,0.578753,-245.212,-1.62813
block_1,6351,9,10602,1,-245.156,-244.467,0.601058,-245.156,-1.62813
block_1,6352,9,10603,1,-181.048,-180.506,0.934992,-181.048,-1.48132
block_1,6353,9,10604,1,-181.003,-180.424,0.967681,-181.003,-1.48132
block_1,6354,9,10605,1,-202.391,-201.784,0.841504,-202.391,-1.53644
block_1,6355,9,10606,1,-202.341,-201.692,0.87107,-202.341,-1.53645
block_1,6356,9,10607,1,-180.957,-180.339,1.00037,-180.957,-1.48132
block_1,6357,9,10608,1,-180.91,-180.251,1.03307,-180.91,-1.48132
block_1,6358,9,10609,1,-202.289,-201.597,0.900634,-202.289,-1.53645
block_1,6359,9,10610,1,-202.236,-201.499,0.930197,-202.236,-1.53645
block_1,6360,9,10611,1,-223.74,-223.068,0.737623,-223.74,-1.58559
block_1,6361,9,10612,1,-223.685,-222.967,0.763717,-223.685,-1.58559
block_1,6362,9,10613,1,-245.097,-244.36,0.623348,-245.097,-1.62814
block_1,6363,9,10614,1,-245.036,-244.249,0.645623,-245.036,-1.62814
block_1,6364,9,10615,1,-223.628,-222.862,0.789804,-223.628,-1.5856
block_1,6365,9,10616,1,-223.569,-222.754,0.815885,-223.569,-1.5856
block_1,6366,9,10617,1,-244.974,-244.134,0.667885,-244.974,-1.62814
block_1,6367,9,10618,1,-244.909,-244.016,0.690135,-244.909,-1.62814
block_1,6368,9,10619,1,-266.705,-266.102,0.426002,-266.705,-1.66344
block_1,6369,9,10620,1,-266.647,-265.998,0.444213,-266.647,-1.66344
block_1,6370,9,10621,1,-288.099,-287.446,0.308907,-288.099,-1.69088
block_1,6371,9,10622,1,-288.037,-287.333,0.322643,-288.037,-1.69088
block_1,6372,9,10623,1,-266.588,-265.889,0.462395,-266.588,-1.66344
block_1,6373,9,10624,1,-266.526,-265.776,0.480549,-266.526,-1.66344
block_1,6374,9,10625,1,-287.972,-287.216,0.336338,-287.972,-1.69088
block_1,6375,9,10626,1,-287.906,-287.094,0.349995,-287.906,-1.69088
block_1,6376,9,10627,1,-309.503,-308.799,0.182805,-309.503,-1.70982
block_1,6377,9,10628,1,-309.436,-308.678,0.191721,-309.436,-1.70982
block_1,6378,9,10629,1,-330.917,-330.162,0.0476992,-330.917,-1.71963
block_1,6379,9,10630,1,-330.845,-330.032,0.0514483,-330.845,-1.71963
block_1,6380,9,10631,1,-309.367,-308.552,0.200583,-309.367,-1.70982
block_1,6381,9,10632,1,-309.295,-308.421,0.209397,-309.295,-1.70982
block_1,6382,9,10633,1,-330.771,-329.898,0.0551306,-330.771,-1.71963
block_1,6383,9,10634,1,-330.695,-329.758,0.0587534,-330.695,-1.71963
block_1,6384,9,10635,1,-266.462,-265.66,0.49868,-266.462,-1.66344
block_1,6385,9,10636,1,-266.396,-265.539,0.516789,-266.396,-1.66344
block_1,6386,9,10637,1,-287.837,-286.968,0.36362,-287.837,-1.69088
block_1,6387,9,10638,1,-287.765,-286.838,0.377214,-287.765,-1.69088
block_1,6388,9,10639,1,-266.328,-265.414,0.534878,-266.328,-1.66344
block_1,6389,9,10640,1,-266.258,-265.286,0.552948,-266.258,-1.66345
block_1,6390,9,10641,1,-287.692,-286.703,0.390781,-287.692,-1.69088
block_1,6391,9,10642,1,-287.616,-286.564,0.404324,-287.616,-1.69088
block_1,6392,9,10643,1,-309.221,-308.286,0.218167,-309.221,-1.70982
block_1,6393,9,10644,1,-309.144,-308.146,0.226899,-309.144,-1.70982
block_1,6394,9,10645,1,-330.615,-329.614,0.0623229,-330.615,-1.71963
block_1,6395,9,10646,1,-330.533,-329.465,0.0658444,-330.533,-1.71963
block_1,6396,9,10647,1,-309.065,-308.002,0.235596,-309.065,-1.70982
block_1,6397,9,10648,1,-308.983,-307.852,0.244262,-308.983,-1.70982
block_1,6398,9,10649,1,-330.449,-329.31,0.0693228,-330.449,-1.71963
block_1,6399,9,10650,1,-330.361,-329.151,0.0727621,-330.361,-1.71964
block_1,6400,9,10651,1,-11.0916,-10.4163,1.48951,-10.4568,-0.900668
block_1,6401,9,10652,1,-11.099,-10.4109,1.53477,-10.4539,-0.900669
block_1,6402,9,10653,1,-31.893,-31.6258,1.4778,-31.7485,-0.980948
block_1,6403,9,10654,1,-31.8855,-31.6095,1.52271,-31.7396,-0.980949
block_1,6404,9,10655,1,-11.1066,-10.4053,1.58004,-10.4509,-0.900669
block_1,6405,9,10656,1,-11.1144,-10.3996,1.62533,-10.4478,-0.90067
block_1,6406,9,10657,1,-31.8776,-31.5926,1.56764,-31.7305,-0.980951
block_1,6407,9,10658,1,-31.8695,-31.5753,1.61258,-31.7211,-0.980952
block_1,6408,9,10659,1,-53.0603,-52.8364,1.4543,-53.0412,-1.06029
block_1,6409,9,10660,1,-53.0443,-52.8091,1.49852,-53.0264,-1.06029
block_1,6410,9,10661,1,-74.3358,-74.0487,1.41902,-74.3358,-1.13806
block_1,6411,9,10662,1,-74.315,-74.0105,1.46219,-74.315,-1.13806
block_1,6412,9,10663,1,-53.0279,-52.781,1.54275,-53.0112,-1.06029
block_1,6413,9,10664,1,-53.0109,-52.752,1.58699,-52.9955,-1.06029
block_1,6414,9,10665,1,-74.2936,-73.9711,1.50537,-74.2936,-1.13806
block_1,6415,9,10666,1,-74.2716,-73.9305,1.54857,-74.2716,-1.13806
block_1,6416,9,10667,1,-11.1222,-10.3937,1.67064,-10.4446,-0.900671
block_1,6417,9,10668,1,-11.1311,-10.3877,1.71596,-10.4413,-0.900672
block_1,6418,9,10669,1,-31.8611,-31.5575,1.65754,-31.7114,-0.980953
block_1,6419,9,10670,1,-31.8523,-31.5392,1.70251,-31.7015,-0.980954
block_1,6420,9,10671,1,-11.1407,-10.3815,1.76129,-10.438,-0.900673
block_1,6421,9,10672,1,-11.1504,-10.3751,1.80663,-10.4345,-0.900674
block_1,6422,9,10673,1,-31.8433,-31.5205,1.74749,-31.6913,-0.980955
block_1,6423,9,10674,1,-31.8339,-31.5012,1.79248,-31.6809,-0.980956
block_1,6424,9,10675,1,-52.9934,-52.7223,1.63125,-52.9793,-1.06029
block_1,6425,9,10676,1,-52.9754,-52.6918,1.67552,-52.9628,-1.0603
block_1,6426,9,10677,1,-74.249,-73.8889,1.59178,-74.249,-1.13807
block_1,6427,9,10678,1,-74.2259,-73.8461,1.635,-74.2259,-1.13807
block_1,6428,9,10679,1,-52.957,-52.6605,1.7198,-52.9458,-1.0603
block_1,6429,9,10680,1,-52.938,-52.6283,1.76409,-52.9284,-1.0603
block_1,6430,9,10681,1,-74.2021,-73.8022,1.67823,-74.2021,-1.13807
block_1,6431,9,10682,1,-74.1777,-73.7572,1.72147,-74.1777,-1.13807
block_1,6432,9,10683,1,-95.6328,-95.2635,1.37194,-95.6328,-1.21363
block_1,6433,9,10684,1,-95.6061,-95.2143,1.41372,-95.6061,-1.21363
block_1,6434,9,10685,1,-116.933,-116.481,1.31308,-116.933,-1.28637
block_1,6435,9,10686,1,-116.9,-116.421,1.35311,-116.9,-1.28637
block_1,6436,9,10687,1,-95.5786,-95.1636,1.45551,-95.5786,-1.21363
block_1,6437,9,10688,1,-95.5503,-95.1115,1.49731,-95.5503,-1.21364
block_1,6438,9,10689,1,-116.867,-116.359,1.39315,-116.867,-1.28638
block_1,6439,9,10690,1,-116.832,-116.296,1.43321,-116.832,-1.28638
block_1,6440,9,10691,1,-138.237,-137.703,1.24243,-138.237,-1.35565
block_1,6441,9,10692,1,-138.199,-137.632,1.28037,-138.199,-1.35566
block_1,6442,9,10693,1,-159.546,-158.929,1.16,-159.546,-1.42085
block_1,6443,9,10694,1,-159.502,-158.847,1.19549,-159.502,-1.42085
block_1,6444,9,10695,1,-138.159,-137.559,1.31832,-138.159,-1.35566
block_1,6445,9,10696,1,-138.118,-137.483,1.35627,-138.118,-1.35566
block_1,6446,9,10697,1,-159.456,-158.763,1.23099,-159.456,-1.42085
block_1,6447,9,10698,1,-159.409,-158.676,1.2665,-159.409,-1.42085
block_1,6448,9,10699,1,-95.5213,-95.0579,1.53912,-95.5213,-1.21364
block_1,6449,9,10700,1,-95.4914,-95.0029,1.58094,-95.4914,-1.21364
block_1,6450,9,10701,1,-116.797,-116.23,1.47327,-116.797,-1.28638
block_1,6451,9,10702,1,-116.76,-116.163,1.51334,-116.76,-1.28638
block_1,6452,9,10703,1,-95.4608,-94.9464,1.62276,-95.4608,-1.21364
block_1,6453,9,10704,1,-95.4294,-94.8885,1.6646,-95.4294,-1.21364
block_1,6454,9,10705,1,-116.723,-116.094,1.55341,-116.723,-1.28638
block_1,6455,9,10706,1,-116.684,-116.023,1.5935,-116.684,-1.28638
block_1,6456,9,10707,1,-138.076,-137.406,1.39423,-138.076,-1.35566
block_1,6457,9,10708,1,-138.033,-137.327,1.4322,-138.033,-1.35566
block_1,6458,9,10709,1,-159.36,-158.587,1.30201,-159.36,-1.42086
block_1,6459,9,10710,1,-159.31,-158.495,1.33752,-159.31,-1.42086
block_1,6460,9,10711,1,-137.989,-137.245,1.47017,-137.989,-1.35567
block_1,6461,9,10712,1,-137.943,-137.161,1.50815,-137.943,-1.35567
block_1,6462,9,10713,1,-159.259,-158.401,1.37304,-159.259,-1.42086
block_1,6463,9,10714,1,-159.207,-158.304,1.40856,-159.207,-1.42086
block_1,6464,9,10715,1,-11.16,-10.3686,1.85198,-10.431,-0.900675
block_1,6465,9,10716,1,-11.1696,-10.3619,1.89733,-10.4274,-0.900675
block_1,6466,9,10717,1,-31.8243,-31.4815,1.83748,-31.6702,-0.980957
block_1,6467,9,10718,1,-31.8143,-31.4613,1.88249,-31.6593,-0.980958
block_1,6468,9,10719,1,-11.1792,-10.3551,1.9427,-10.4237,-0.900676
block_1,6469,9,10720,1,-11.1888,-10.3481,1.98808,-10.4199,-0.900677
block_1,6470,9,10721,1,-31.8041,-31.4406,1.92751,-31.6481,-0.980959
block_1,6471,9,10722,1,-31.7935,-31.4194,1.97254,-31.6366,-0.98096
block_1,6472,9,10723,1,-52.9186,-52.5954,1.80839,-52.9105,-1.0603
block_1,6473,9,10724,1,-52.8986,-52.5616,1.8527,-52.8923,-1.0603
block_1,6474,9,10725,1,-74.1526,-73.711,1.76472,-74.1526,-1.13807
block_1,6475,9,10726,1,-74.127,-73.6637,1.80797,-74.127,-1.13807
block_1,6476,9,10727,1,-52.8782,-52.5271,1.89702,-52.8736,-1.0603
block_1,6477,9,10728,1,-52.8573,-52.4917,1.94135,-52.8544,-1.0603
block_1,6478,9,10729,1,-74.1008,-73.6153,1.85124,-74.1008,-1.13807
block_1,6479,9,10730,1,-74.074,-73.5658,1.89451,-74.074,-1.13807
block_1,6480,9,10731,1,-11.1983,-10.341,2.03346,-10.416,-0.900678
block_1,6481,9,10732,1,-11.2078,-10.3336,2.07885,-10.412,-0.900679
block_1,6482,9,10733,1,-31.7826,-31.3977,2.01757,-31.6249,-0.980961
block_1,6483,9,10734,1,-31.7714,-31.3756,2.06261,-31.6129,-0.980962
block_1,6484,9,10735,1,-11.2172,-10.3262,2.12425,-10.408,-0.90068
block_1,6485,9,10736,1,-11.2266,-10.3185,2.16965,-10.4039,-0.900681
block_1,6486,9,10737,1,-31.7599,-31.3529,2.10766,-31.6006,-0.980963
block_1,6487,9,10738,1,-31.7481,-31.3298,2.15271,-31.5881,-0.980964
block_1,6488,9,10739,1,-52.8359,-52.4555,1.98568,-52.8348,-1.0603
block_1,6489,9,10740,1,-52.8148,-52.4186,2.03002,-52.8148,-1.0603
block_1,6490,9,10741,1,-74.0465,-73.5151,1.93779,-74.0465,-1.13808
block_1,6491,9,10742,1,-74.0185,-73.4633,1.98107,-74.0185,-1.13808
block_1,6492,9,10743,1,-52.7944,-52.3808,2.07436,-52.7944,-1.06031
block_1,6493,9,10744,1,-52.7735,-52.3422,2.11871,-52.7735,-1.06031
block_1,6494,9,10745,1,-73.9899,-73.4104,2.02436,-73.9899,-1.13808
block_1,6495,9,10746,1,-73.9606,-73.3563,2.06765,-73.9606,-1.13808
block_1,6496,9,10747,1,-95.3972,-94.8291,1.70645,-95.3972,-1.21364
block_1,6497,9,10748,1,-95.3643,-94.7683,1.7483,-95.3643,-1.21364
block_1,6498,9,10749,1,-116.645,-115.95,1.63359,-116.645,-1.28639
block_1,6499,9,10750,1,-116.605,-115.876,1.67368,-116.605,-1.28639
block_1,6500,9,10751,1,-95.3306,-94.706,1.79016,-95.3306,-1.21365
block_1,6501,9,10752,1,-95.2961,-94.6423,1.83202,-95.2961,-1.21365
block_1,6502,9,10753,1,-116.564,-115.8,1.71378,-116.564,-1.28639
block_1,6503,9,10754,1,-116.521,-115.722,1.75389,-116.521,-1.28639
block_1,6504,9,10755,1,-137.897,-137.076,1.54613,-137.897,-1.35567
block_1,6505,9,10756,1,-137.849,-136.988,1.58412,-137.849,-1.35567
block_1,6506,9,10757,1,-159.153,-158.205,1.44409,-159.153,-1.42086
block_1,6507,9,10758,1,-159.098,-158.104,1.47962,-159.098,-1.42086
block_1,6508,9,10759,1,-137.8,-136.898,1.62211,-137.8,-1.35567
block_1,6509,9,10760,1,-137.751,-136.806,1.66011,-137.751,-1.35567
block_1,6510,9,10761,1,-159.042,-158,1.51515,-159.042,-1.42087
block_1,6511,9,10762,1,-158.984,-157.894,1.55068,-158.984,-1.42087
block_1,6512,9,10763,1,-95.2608,-94.5771,1.87389,-95.2608,-1.21365
block_1,6513,9,10764,1,-95.2247,-94.5105,1.91577,-95.2247,-1.21365
block_1,6514,9,10765,1,-116.478,-115.642,1.794,-116.478,-1.28639
block_1,6515,9,10766,1,-116.434,-115.561,1.83412,-116.434,-1.28639
block_1,6516,9,10767,1,-95.1878,-94.4424,1.95765,-95.1878,-1.21365
block_1,6517,9,10768,1,-95.1502,-94.3729,1.99954,-95.1502,-1.21365
block_1,6518,9,10769,1,-116.389,-115.478,1.87424,-116.389,-1.28639
block_1,6519,9,10770,1,-116.343,-115.393,1.91436,-116.343,-1.28639
block_1,6520,9,10771,1,-137.7,-136.711,1.69811,-137.7,-1.35567
block_1,6521,9,10772,1,-137.647,-136.615,1.73612,-137.647,-1.35568
block_1,6522,9,10773,1,-158.926,-157.785,1.58622,-158.926,-1.42087
block_1,6523,9,10774,1,-158.865,-157.674,1.62176,-158.865,-1.42087
block_1,6524,9,10775,1,-137.594,-136.517,1.77412,-137.594,-1.35568
block_1,6525,9,10776,1,-137.54,-136.416,1.81213,-137.54,-1.35568
block_1,6526,9,10777,1,-158.804,-157.56,1.6573,-158.804,-1.42087
block_1,6527,9,10778,1,-158.741,-157.444,1.69285,-158.741,-1.42087
block_1,6528,9,10779,1,-180.86,-180.161,1.06577,-180.86,-1.48132
block_1,6529,9,10780,1,-180.81,-180.068,1.09847,-180.81,-1.48133
block_1,6530,9,10781,1,-202.181,-201.398,0.959759,-202.181,-1.53645
block_1,6531,9,10782,1,-202.124,-201.294,0.98932,-202.124,-1.53645
block_1,6532,9,10783,1,-180.758,-179.972,1.13118,-180.758,-1.48133
block_1,6533,9,10784,1,-180.704,-179.874,1.16389,-180.704,-1.48133
block_1,6534,9,10785,1,-202.066,-201.187,1.01888,-202.066,-1.53646
block_1,6535,9,10786,1,-202.006,-201.077,1.04844,-202.006,-1.53646
block_1,6536,9,10787,1,-223.508,-222.642,0.84196,-223.508,-1.5856
block_1,6537,9,10788,1,-223.446,-222.527,0.86803,-223.446,-1.5856
block_1,6538,9,10789,1,-244.843,-243.894,0.712375,-244.843,-1.62814
block_1,6539,9,10790,1,-244.774,-243.768,0.734604,-244.774,-1.62814
block_1,6540,9,10791,1,-223.381,-222.409,0.894095,-223.381,-1.5856
block_1,6541,9,10792,1,-223.315,-222.288,0.920156,-223.315,-1.58561
block_1,6542,9,10793,1,-244.704,-243.638,0.756824,-244.704,-1.62815
block_1,6543,9,10794,1,-244.631,-243.505,0.779036,-244.631,-1.62815
block_1,6544,9,10795,1,-180.649,-179.772,1.1966,-180.649,-1.48133
block_1,6545,9,10796,1,-180.593,-179.668,1.22931,-180.593,-1.48133
block_1,6546,9,10797,1,-201.945,-200.964,1.078,-201.945,-1.53646
block_1,6547,9,10798,1,-201.882,-200.848,1.10755,-201.882,-1.53646
block_1,6548,9,10799,1,-180.535,-179.562,1.26202,-180.535,-1.48134
block_1,6549,9,10800,1,-180.476,-179.452,1.29474,-180.476,-1.48134
block_1,6550,9,10801,1,-201.817,-200.729,1.13711,-201.817,-1.53646
block_1,6551,9,10802,1,-201.751,-200.606,1.16667,-201.751,-1.53646
block_1,6552,9,10803,1,-223.247,-222.163,0.946212,-223.247,-1.58561
block_1,6553,9,10804,1,-223.177,-222.034,0.972265,-223.177,-1.58561
block_1,6554,9,10805,1,-244.557,-243.368,0.801241,-244.557,-1.62815
block_1,6555,9,10806,1,-244.481,-243.228,0.823438,-244.481,-1.62815
block_1,6556,9,10807,1,-223.106,-221.902,0.998315,-223.106,-1.58561
block_1,6557,9,10808,1,-223.033,-221.767,1.02436,-223.033,-1.58561
block_1,6558,9,10809,1,-244.402,-243.083,0.845629,-244.402,-1.62815
block_1,6559,9,10810,1,-244.322,-242.935,0.867814,-244.322,-1.62815
block_1,6560,9,10811,1,-266.186,-265.153,0.571003,-266.186,-1.66345
block_1,6561,9,10812,1,-266.111,-265.016,0.589042,-266.111,-1.66345
block_1,6562,9,10813,1,-287.538,-286.421,0.417844,-287.538,-1.69088
block_1,6563,9,10814,1,-287.457,-286.274,0.431343,-287.457,-1.69089
block_1,6564,9,10815,1,-266.035,-264.876,0.607067,-266.035,-1.66345
block_1,6565,9,10816,1,-265.956,-264.731,0.62508,-265.956,-1.66345
block_1,6566,9,10817,1,-287.375,-286.122,0.444824,-287.375,-1.69089
block_1,6567,9,10818,1,-287.289,-285.965,0.458288,-287.289,-1.69089
block_1,6568,9,10819,1,-308.899,-307.699,0.252898,-308.899,-1.70982
block_1,6569,9,10820,1,-308.813,-307.54,0.261508,-308.813,-1.70982
block_1,6570,9,10821,1,-330.272,-328.986,0.0761659,-330.272,-1.71964
block_1,6571,9,10822,1,-330.179,-328.817,0.0795374,-330.179,-1.71964
block_1,6572,9,10823,1,-308.724,-307.377,0.270095,-308.724,-1.70983
block_1,6573,9,10824,1,-308.633,-307.209,0.27866,-308.633,-1.70983
block_1,6574,9,10825,1,-330.084,-328.642,0.0828794,-330.084,-1.71964
block_1,6575,9,10826,1,-329.986,-328.463,0.0861945,-329.986,-1.71964
block_1,6576,9,10827,1,-265.875,-264.582,0.643082,-265.875,-1.66345
block_1,6577,9,10828,1,-265.792,-264.429,0.661073,-265.792,-1.66345
block_1,6578,9,10829,1,-287.202,-285.805,0.471736,-287.202,-1.69089
block_1,6579,9,10830,1,-287.112,-285.639,0.48517,-287.112,-1.69089
block_1,6580,9,10831,1,-265.707,-264.272,0.679054,-265.707,-1.66346
block_1,6581,9,10832,1,-265.619,-264.111,0.697027,-265.619,-1.66346
block_1,6582,9,10833,1,-287.02,-285.47,0.498591,-287.02,-1.69089
block_1,6583,9,10834,1,-286.926,-285.296,0.512,-286.926,-1.69089
block_1,6584,9,10835,1,-308.539,-307.037,0.287204,-308.539,-1.70983
block_1,6585,9,10836,1,-308.442,-306.859,0.29573,-308.442,-1.70983
block_1,6586,9,10837,1,-329.886,-328.279,0.0894848,-329.886,-1.71964
block_1,6587,9,10838,1,-329.783,-328.089,0.0927523,-329.783,-1.71964
block_1,6588,9,10839,1,-308.343,-306.677,0.304239,-308.343,-1.70983
block_1,6589,9,10840,1,-308.242,-306.491,0.312733,-308.242,-1.70983
block_1,6590,9,10841,1,-329.677,-327.895,0.0959988,-329.677,-1.71964
block_1,6591,9,10842,1,-329.568,-327.695,0.0992259,-329.568,-1.71964
block_1,6592,9,10843,1,-180.415,-179.34,1.32745,-180.415,-1.48134
block_1,6593,9,10844,1,-180.353,-179.225,1.36017,-180.353,-1.48134
block_1,6594,9,10845,1,-201.683,-200.481,1.19622,-201.683,-1.53647
block_1,6595,9,10846,1,-201.613,-200.353,1.22578,-201.613,-1.53647
block_1,6596,9,10847,1,-180.289,-179.107,1.39289,-180.289,-1.48134
block_1,6597,9,10848,1,-180.224,-178.987,1.42561,-180.224,-1.48134
block_1,6598,9,10849,1,-201.542,-200.221,1.25533,-201.542,-1.53647
block_1,6599,9,10850,1,-201.469,-200.086,1.28489,-201.469,-1.53647
block_1,6600,9,10851,1,-222.957,-221.629,1.0504,-222.957,-1.58561
block_1,6601,9,10852,1,-222.88,-221.487,1.07644,-222.88,-1.58562
block_1,6602,9,10853,1,-244.239,-242.783,0.889993,-244.239,-1.62816
block_1,6603,9,10854,1,-244.155,-242.628,0.912168,-244.155,-1.62816
block_1,6604,9,10855,1,-222.802,-221.341,1.10248,-222.802,-1.58562
block_1,6605,9,10856,1,-222.721,-221.192,1.12852,-222.721,-1.58562
block_1,6606,9,10857,1,-244.069,-242.469,0.934338,-244.069,-1.62816
block_1,6607,9,10858,1,-243.98,-242.306,0.956503,-243.98,-1.62816
block_1,6608,9,10859,1,-180.157,-178.864,1.45833,-180.157,-1.48134
block_1,6609,9,10860,1,-180.089,-178.738,1.49105,-180.089,-1.48135
block_1,6610,9,10861,1,-201.394,-199.949,1.31444,-201.394,-1.53647
block_1,6611,9,10862,1,-201.318,-199.808,1.344,-201.318,-1.53647
block_1,6612,9,10863,1,-180.019,-178.609,1.52378,-180.019,-1.48135
block_1,6613,9,10864,1,-179.948,-178.478,1.5565,-179.948,-1.48135
block_1,6614,9,10865,1,-201.24,-199.664,1.37355,-201.24,-1.53647
block_1,6615,9,10866,1,-201.161,-199.517,1.4031,-201.161,-1.53648
block_1,6616,9,10867,1,-222.638,-221.04,1.15455,-222.638,-1.58562
block_1,6617,9,10868,1,-222.554,-220.885,1.18058,-222.554,-1.58562
block_1,6618,9,10869,1,-243.89,-242.139,0.978664,-243.89,-1.62816
block_1,6619,9,10870,1,-243.798,-241.969,1.00082,-243.798,-1.62816
block_1,6620,9,10871,1,-222.468,-220.726,1.20661,-222.468,-1.58562
block_1,6621,9,10872,1,-222.38,-220.563,1.23264,-222.38,-1.58562
block_1,6622,9,10873,1,-243.703,-241.795,1.02298,-243.703,-1.62816
block_1,6623,9,10874,1,-243.607,-241.617,1.04513,-243.607,-1.62817
block_1,6624,9,10875,1,-265.53,-263.946,0.714991,-265.53,-1.66346
block_1,6625,9,10876,1,-265.438,-263.777,0.732948,-265.438,-1.66346
block_1,6626,9,10877,1,-286.829,-285.118,0.525397,-286.829,-1.69089
block_1,6627,9,10878,1,-286.73,-284.936,0.538784,-286.73,-1.6909
block_1,6628,9,10879,1,-265.344,-263.604,0.750897,-265.344,-1.66346
block_1,6629,9,10880,1,-265.248,-263.427,0.76884,-265.248,-1.66346
block_1,6630,9,10881,1,-286.629,-284.749,0.552161,-286.629,-1.6909
block_1,6631,9,10882,1,-286.525,-284.558,0.565529,-286.525,-1.6909
block_1,6632,9,10883,1,-308.138,-306.299,0.321212,-308.138,-1.70983
block_1,6633,9,10884,1,-308.032,-306.103,0.329677,-308.032,-1.70983
block_1,6634,9,10885,1,-329.457,-327.491,0.102435,-329.457,-1.71964
block_1,6635,9,10886,1,-329.343,-327.281,0.105627,-329.343,-1.71965
block_1,6636,9,10887,1,-307.923,-305.903,0.33813,-307.923,-1.70984
block_1,6637,9,10888,1,-307.811,-305.697,0.346572,-307.811,-1.70984
block_1,6638,9,10889,1,-329.227,-327.067,0.108804,-329.227,-1.71965
block_1,6639,9,10890,1,-329.108,-326.847,0.111967,-329.108,-1.71965
block_1,6640,9,10891,1,-265.15,-263.246,0.786776,-265.15,-1.66346
block_1,6641,9,10892,1,-265.05,-263.061,0.804707,-265.05,-1.66347
block_1,6642,9,10893,1,-286.419,-284.362,0.578889,-286.419,-1.6909
block_1,6643,9,10894,1,-286.31,-284.162,0.592241,-286.31,-1.6909
block_1,6644,9,10895,1,-264.947,-262.872,0.822633,-264.947,-1.66347
block_1,6645,9,10896,1,-264.842,-262.678,0.840553,-264.842,-1.66347
block_1,6646,9,10897,1,-286.2,-283.957,0.605585,-286.2,-1.6909
block_1,6647,9,10898,1,-286.087,-283.749,0.618923,-286.087,-1.6909
block_1,6648,9,10899,1,-307.697,-305.487,0.355002,-307.697,-1.70984
block_1,6649,9,10900,1,-307.581,-305.272,0.363423,-307.581,-1.70984
block_1,6650,9,10901,1,-328.986,-326.623,0.115116,-328.986,-1.71965
block_1,6651,9,10902,1,-328.862,-326.393,0.118252,-328.862,-1.71965
block_1,6652,9,10903,1,-307.462,-305.053,0.371833,-307.462,-1.70984
block_1,6653,9,10904,1,-307.34,-304.829,0.380235,-307.34,-1.70984
block_1,6654,9,10905,1,-328.734,-326.158,0.121377,-328.734,-1.71965
block_1,6655,9,10906,1,-328.604,-325.919,0.124491,-328.604,-1.71965
block_1,6656,9,10907,1,-11.236,-10.3107,2.21506,-10.3996,-0.900682
block_1,6657,9,10908,1,-11.2453,-10.3028,2.26048,-10.3953,-0.900683
block_1,6658,9,10909,1,-31.736,-31.3062,2.19777,-31.5754,-0.980965
block_1,6659,9,10910,1,-31.7236,-31.2821,2.24283,-31.5623,-0.980966
block_1,6660,9,10911,1,-11.2546,-10.2947,2.3059,-10.3909,-0.900684
block_1,6661,9,10912,1,-11.2638,-10.2864,2.35132,-10.3865,-0.900685
block_1,6662,9,10913,1,-31.7108,-31.2576,2.2879,-31.5491,-0.980967
block_1,6663,9,10914,1,-31.6978,-31.2325,2.33298,-31.5355,-0.980968
block_1,6664,9,10915,1,-52.7522,-52.3028,2.16307,-52.7522,-1.06031
block_1,6665,9,10916,1,-52.7304,-52.2626,2.20743,-52.7304,-1.06031
block_1,6666,9,10917,1,-73.9307,-73.3011,2.11095,-73.9307,-1.13808
block_1,6667,9,10918,1,-73.9003,-73.2448,2.15426,-73.9003,-1.13808
block_1,6668,9,10919,1,-52.7082,-52.2216,2.25179,-52.7082,-1.06031
block_1,6669,9,10920,1,-52.6856,-52.1797,2.29616,-52.6856,-1.06031
block_1,6670,9,10921,1,-73.8692,-73.1873,2.19756,-73.8692,-1.13808
block_1,6671,9,10922,1,-73.8375,-73.1287,2.24088,-73.8375,-1.13808
block_1,6672,9,10923,1,-11.273,-10.2779,2.39675,-10.3819,-0.900686
block_1,6673,9,10924,1,-11.2822,-10.2693,2.44219,-10.3773,-0.900687
block_1,6674,9,10925,1,-31.6845,-31.207,2.37806,-31.5217,-0.980969
block_1,6675,9,10926,1,-31.6708,-31.181,2.42314,-31.5076,-0.980971
block_1,6676,9,10927,1,-11.2913,-10.2606,2.48762,-10.3725,-0.900688
block_1,6677,9,10928,1,-11.3004,-10.2517,2.53307,-10.3677,-0.900689
block_1,6678,9,10929,1,-31.6569,-31.1545,2.46823,-31.4933,-0.980972
block_1,6679,9,10930,1,-31.6426,-31.1275,2.51332,-31.4787,-0.980973
block_1,6680,9,10931,1,-52.6625,-52.1371,2.34054,-52.6625,-1.06031
block_1,6681,9,10932,1,-52.6391,-52.0936,2.38491,-52.6391,-1.06031
block_1,6682,9,10933,1,-73.8052,-73.0689,2.28419,-73.8052,-1.13809
block_1,6683,9,10934,1,-73.7723,-73.0081,2.32751,-73.7723,-1.13809
block_1,6684,9,10935,1,-52.6151,-52.0494,2.4293,-52.6151,-1.06031
block_1,6685,9,10936,1,-52.5908,-52.0043,2.47368,-52.5908,-1.06032
block_1,6686,9,10937,1,-73.7387,-72.9461,2.37084,-73.7387,-1.13809
block_1,6687,9,10938,1,-73.7046,-72.8829,2.41416,-73.7046,-1.13809
block_1,6688,9,10939,1,-95.1118,-94.3019,2.04143,-95.1118,-1.21365
block_1,6689,9,10940,1,-95.0726,-94.2294,2.08332,-95.0726,-1.21365
block_1,6690,9,10941,1,-116.296,-115.306,1.95449,-116.296,-1.2864
block_1,6691,9,10942,1,-116.248,-115.217,1.99463,-116.248,-1.2864
block_1,6692,9,10943,1,-95.0326,-94.1555,2.12522,-95.0326,-1.21366
block_1,6693,9,10944,1,-94.9918,-94.0801,2.16712,-94.9918,-1.21366
block_1,6694,9,10945,1,-116.199,-115.127,2.03476,-116.199,-1.2864
block_1,6695,9,10946,1,-116.149,-115.035,2.0749,-116.149,-1.2864
block_1,6696,9,10947,1,-137.484,-136.314,1.85015,-137.484,-1.35568
block_1,6697,9,10948,1,-137.428,-136.209,1.88817,-137.428,-1.35568
block_1,6698,9,10949,1,-158.677,-157.326,1.72839,-158.677,-1.42087
block_1,6699,9,10950,1,-158.612,-157.205,1.76394,-158.612,-1.42088
block_1,6700,9,10951,1,-137.37,-136.102,1.92618,-137.37,-1.35568
block_1,6701,9,10952,1,-137.311,-135.993,1.96421,-137.311,-1.35568
block_1,6702,9,10953,1,-158.545,-157.082,1.79949,-158.545,-1.42088
block_1,6703,9,10954,1,-158.477,-156.956,1.83504,-158.477,-1.42088
block_1,6704,9,10955,1,-94.9503,-94.0033,2.20903,-94.9503,-1.21366
block_1,6705,9,10956,1,-94.908,-93.925,2.25094,-94.908,-1.21366
block_1,6706,9,10957,1,-116.099,-114.941,2.11504,-116.099,-1.2864
block_1,6707,9,10958,1,-116.047,-114.845,2.15519,-116.047,-1.2864
block_1,6708,9,10959,1,-94.8648,-93.8452,2.29285,-94.8648,-1.21366
block_1,6709,9,10960,1,-94.8209,-93.764,2.33476,-94.8209,-1.21366
block_1,6710,9,10961,1,-115.994,-114.748,2.19533,-115.994,-1.2864
block_1,6711,9,10962,1,-115.94,-114.648,2.23548,-115.94,-1.28641
block_1,6712,9,10963,1,-137.251,-135.882,2.00223,-137.251,-1.35569
block_1,6713,9,10964,1,-137.19,-135.769,2.04026,-137.19,-1.35569
block_1,6714,9,10965,1,-158.408,-156.828,1.8706,-158.408,-1.42088
block_1,6715,9,10966,1,-158.337,-156.697,1.90615,-158.337,-1.42088
block_1,6716,9,10967,1,-137.127,-135.654,2.07828,-137.127,-1.35569
block_1,6717,9,10968,1,-137.064,-135.536,2.11631,-137.064,-1.35569
block_1,6718,9,10969,1,-158.265,-156.564,1.94171,-158.265,-1.42088
block_1,6719,9,10970,1,-158.192,-156.429,1.97727,-158.192,-1.42088
block_1,6720,9,10971,1,-11.3105,-10.2426,2.57851,-10.3628,-0.90069
block_1,6721,9,10972,1,-11.3214,-10.2334,2.62396,-10.3578,-0.900692
block_1,6722,9,10973,1,-31.628,-31.1,2.55841,-31.4639,-0.980974
block_1,6723,9,10974,1,-31.6131,-31.072,2.60351,-31.4487,-0.980975
block_1,6724,9,10975,1,-11.3324,-10.224,2.66941,-10.3527,-0.900693
block_1,6725,9,10976,1,-11.3436,-10.2144,2.71487,-10.3476,-0.900694
block_1,6726,9,10977,1,-31.598,-31.0436,2.64861,-31.4334,-0.980977
block_1,6727,9,10978,1,-31.5825,-31.0146,2.69371,-31.4177,-0.980978
block_1,6728,9,10979,1,-52.566,-51.9584,2.51807,-52.566,-1.06032
block_1,6729,9,10980,1,-52.5407,-51.9117,2.56246,-52.5407,-1.06032
block_1,6730,9,10981,1,-73.6699,-72.8186,2.4575,-73.6699,-1.13809
block_1,6731,9,10982,1,-73.6345,-72.7532,2.50083,-73.6345,-1.13809
block_1,6732,9,10983,1,-52.5151,-51.8642,2.60686,-52.5151,-1.06032
block_1,6733,9,10984,1,-52.489,-51.8159,2.65126,-52.489,-1.06032
block_1,6734,9,10985,1,-73.5986,-72.6867,2.54416,-73.5986,-1.13809
block_1,6735,9,10986,1,-73.562,-72.619,2.5875,-73.562,-1.1381
block_1,6736,9,10987,1,-11.3549,-10.2047,2.76033,-10.3423,-0.900695
block_1,6737,9,10988,1,-11.3664,-10.1948,2.80579,-10.337,-0.900696
block_1,6738,9,10989,1,-31.5667,-30.9852,2.73882,-31.4018,-0.980979
block_1,6739,9,10990,1,-31.5506,-30.9553,2.78393,-31.3857,-0.980981
block_1,6740,9,10991,1,-11.378,-10.1848,2.85125,-10.3316,-0.900698
block_1,6741,9,10992,1,-11.3897,-10.1746,2.89672,-10.326,-0.900699
block_1,6742,9,10993,1,-31.5341,-30.9249,2.82904,-31.3693,-0.980982
block_1,6743,9,10994,1,-31.5174,-30.894,2.87415,-31.3526,-0.980983
block_1,6744,9,10995,1,-52.4624,-51.7668,2.69566,-52.4624,-1.06032
block_1,6745,9,10996,1,-52.4355,-51.7169,2.74006,-52.4355,-1.06032
block_1,6746,9,10997,1,-73.5248,-72.5501,2.63084,-73.5248,-1.1381
block_1,6747,9,10998,1,-73.487,-72.4802,2.67419,-73.487,-1.1381
block_1,6748,9,10999,1,-52.4081,-51.6661,2.78447,-52.4081,-1.06033
block_1,6749,9,11000,1,-52.3802,-51.6146,2.82888,-52.3802,-1.06033
block_1,6750,9,11001,1,-73.4486,-72.4091,2.71753,-73.4486,-1.1381
block_1,6751,9,11002,1,-73.4096,-72.3368,2.76088,-73.4096,-1.1381
block_1,6752,9,11003,1,-94.7762,-93.6813,2.37668,-94.7762,-1.21366
block_1,6753,9,11004,1,-94.7308,-93.5972,2.4186,-94.7308,-1.21367
block_1,6754,9,11005,1,-115.886,-114.547,2.27563,-115.886,-1.28641
block_1,6755,9,11006,1,-115.83,-114.444,2.31579,-115.83,-1.28641
block_1,6756,9,11007,1,-94.6845,-93.5116,2.46053,-94.6845,-1.21367
block_1,6757,9,11008,1,-94.6375,-93.4245,2.50245,-94.6375,-1.21367
block_1,6758,9,11009,1,-115.774,-114.34,2.35594,-115.774,-1.28641
block_1,6759,9,11010,1,-115.716,-114.233,2.3961,-115.716,-1.28641
block_1,6760,9,11011,1,-136.999,-135.417,2.15435,-136.999,-1.35569
block_1,6761,9,11012,1,-136.934,-135.295,2.19238,-136.934,-1.35569
block_1,6762,9,11013,1,-158.117,-156.291,2.01282,-158.117,-1.42089
block_1,6763,9,11014,1,-158.042,-156.151,2.04838,-158.042,-1.42089
block_1,6764,9,11015,1,-136.867,-135.172,2.23042,-136.867,-1.35569
block_1,6765,9,11016,1,-136.799,-135.046,2.26845,-136.799,-1.3557
block_1,6766,9,11017,1,-157.964,-156.008,2.08394,-157.964,-1.42089
block_1,6767,9,11018,1,-157.886,-155.863,2.11951,-157.886,-1.42089
block_1,6768,9,11019,1,-94.5896,-93.336,2.54438,-94.5896,-1.21367
block_1,6769,9,11020,1,-94.541,-93.246,2.58631,-94.541,-1.21367
block_1,6770,9,11021,1,-115.658,-114.125,2.43626,-115.658,-1.28641
block_1,6771,9,11022,1,-115.598,-114.015,2.47642,-115.598,-1.28642
block_1,6772,9,11023,1,-94.4916,-93.1545,2.62824,-94.4916,-1.21367
block_1,6773,9,11024,1,-94.4415,-93.0616,2.67018,-94.4415,-1.21367
block_1,6774,9,11025,1,-115.538,-113.903,2.51659,-115.538,-1.28642
block_1,6775,9,11026,1,-115.477,-113.79,2.55675,-115.477,-1.28642
block_1,6776,9,11027,1,-136.73,-134.918,2.30649,-136.73,-1.3557
block_1,6777,9,11028,1,-136.659,-134.788,2.34453,-136.659,-1.3557
block_1,6778,9,11029,1,-157.806,-155.715,2.15507,-157.806,-1.42089
block_1,6779,9,11030,1,-157.725,-155.565,2.19063,-157.725,-1.4209
block_1,6780,9,11031,1,-136.588,-134.656,2.38257,-136.588,-1.3557
block_1,6781,9,11032,1,-136.515,-134.521,2.42062,-136.515,-1.3557
block_1,6782,9,11033,1,-157.643,-155.413,2.2262,-157.643,-1.4209
block_1,6783,9,11034,1,-157.559,-155.258,2.26177,-157.559,-1.4209
block_1,6784,9,11035,1,-179.875,-178.344,1.58923,-179.875,-1.48135
block_1,6785,9,11036,1,-179.801,-178.207,1.62196,-179.801,-1.48135
block_1,6786,9,11037,1,-201.079,-199.367,1.43265,-201.079,-1.53648
block_1,6787,9,11038,1,-200.997,-199.214,1.46221,-200.997,-1.53648
block_1,6788,9,11039,1,-179.726,-178.067,1.65468,-179.726,-1.48135
block_1,6789,9,11040,1,-179.648,-177.924,1.68741,-179.648,-1.48135
block_1,6790,9,11041,1,-200.912,-199.058,1.49176,-200.912,-1.53648
block_1,6791,9,11042,1,-200.826,-198.899,1.52131,-200.826,-1.53648
block_1,6792,9,11043,1,-222.29,-220.398,1.25867,-222.29,-1.58563
block_1,6793,9,11044,1,-222.199,-220.228,1.28469,-222.199,-1.58563
block_1,6794,9,11045,1,-243.509,-241.435,1.06727,-243.509,-1.62817
block_1,6795,9,11046,1,-243.409,-241.25,1.08942,-243.409,-1.62817
block_1,6796,9,11047,1,-222.105,-220.056,1.31072,-222.105,-1.58563
block_1,6797,9,11048,1,-222.01,-219.88,1.33674,-222.01,-1.58563
block_1,6798,9,11049,1,-243.306,-241.061,1.11156,-243.306,-1.62817
block_1,6799,9,11050,1,-243.202,-240.868,1.1337,-243.202,-1.62817
block_1,6800,9,11051,1,-179.57,-177.779,1.72014,-179.57,-1.48136
block_1,6801,9,11052,1,-179.49,-177.631,1.75287,-179.49,-1.48136
block_1,6802,9,11053,1,-200.738,-198.736,1.55086,-200.738,-1.53648
block_1,6803,9,11054,1,-200.649,-198.571,1.58041,-200.649,-1.53648
block_1,6804,9,11055,1,-179.408,-177.48,1.7856,-179.408,-1.48136
block_1,6805,9,11056,1,-179.325,-177.327,1.81833,-179.325,-1.48136
block_1,6806,9,11057,1,-200.558,-198.403,1.60996,-200.558,-1.53649
block_1,6807,9,11058,1,-200.465,-198.231,1.63952,-200.465,-1.53649
block_1,6808,9,11059,1,-221.913,-219.7,1.36276,-221.913,-1.58563
block_1,6809,9,11060,1,-221.814,-219.517,1.38878,-221.814,-1.58563
block_1,6810,9,11061,1,-243.096,-240.672,1.15584,-243.096,-1.62817
block_1,6811,9,11062,1,-242.987,-240.471,1.17797,-242.987,-1.62817
block_1,6812,9,11063,1,-221.714,-219.331,1.4148,-221.714,-1.58564
block_1,6813,9,11064,1,-221.611,-219.142,1.44082,-221.611,-1.58564
block_1,6814,9,11065,1,-242.877,-240.267,1.2001,-242.877,-1.62818
block_1,6815,9,11066,1,-242.765,-240.06,1.22223,-242.765,-1.62818
block_1,6816,9,11067,1,-264.736,-262.481,0.858469,-264.736,-1.66347
block_1,6817,9,11068,1,-264.626,-262.28,0.876381,-264.626,-1.66347
block_1,6818,9,11069,1,-285.971,-283.536,0.632254,-285.971,-1.6909
block_1,6819,9,11070,1,-285.853,-283.318,0.645579,-285.853,-1.69091
block_1,6820,9,11071,1,-264.515,-262.074,0.894288,-264.515,-1.66347
block_1,6821,9,11072,1,-264.402,-261.865,0.912191,-264.402,-1.66347
block_1,6822,9,11073,1,-285.733,-283.096,0.658899,-285.733,-1.69091
block_1,6823,9,11074,1,-285.611,-282.87,0.672213,-285.611,-1.69091
block_1,6824,9,11075,1,-307.216,-304.6,0.388629,-307.216,-1.70984
block_1,6825,9,11076,1,-307.09,-304.366,0.397015,-307.09,-1.70984
block_1,6826,9,11077,1,-328.472,-325.674,0.127594,-328.472,-1.71965
block_1,6827,9,11078,1,-328.337,-325.424,0.130688,-328.337,-1.71966
block_1,6828,9,11079,1,-306.961,-304.128,0.405393,-306.961,-1.70985
block_1,6829,9,11080,1,-306.829,-303.885,0.413765,-306.829,-1.70985
block_1,6830,9,11081,1,-328.199,-325.169,0.133772,-328.199,-1.71966
block_1,6831,9,11082,1,-328.058,-324.91,0.136848,-328.058,-1.71966
block_1,6832,9,11083,1,-264.286,-261.651,0.930091,-264.286,-1.66348
block_1,6833,9,11084,1,-264.169,-261.433,0.947987,-264.169,-1.66348
block_1,6834,9,11085,1,-285.486,-282.639,0.685521,-285.486,-1.69091
block_1,6835,9,11086,1,-285.359,-282.404,0.698826,-285.359,-1.69091
block_1,6836,9,11087,1,-264.049,-261.212,0.965879,-264.049,-1.66348
block_1,6837,9,11088,1,-263.927,-260.986,0.983769,-263.927,-1.66348
block_1,6838,9,11089,1,-285.229,-282.165,0.712125,-285.229,-1.69091
block_1,6839,9,11090,1,-285.097,-281.921,0.72542,-285.097,-1.69092
block_1,6840,9,11091,1,-306.695,-303.637,0.42213,-306.695,-1.70985
block_1,6841,9,11092,1,-306.558,-303.384,0.430489,-306.558,-1.70985
block_1,6842,9,11093,1,-327.915,-324.645,0.139916,-327.915,-1.71966
block_1,6843,9,11094,1,-327.769,-324.375,0.142976,-327.769,-1.71966
block_1,6844,9,11095,1,-306.419,-303.127,0.438842,-306.419,-1.70985
block_1,6845,9,11096,1,-306.278,-302.865,0.447189,-306.278,-1.70985
block_1,6846,9,11097,1,-327.62,-324.1,0.146028,-327.62,-1.71966
block_1,6847,9,11098,1,-327.468,-323.82,0.149074,-327.468,-1.71966
block_1,6848,9,11099,1,-179.241,-177.171,1.85106,-179.241,-1.48136
block_1,6849,9,11100,1,-179.155,-177.012,1.8838,-179.155,-1.48136
block_1,6850,9,11101,1,-200.37,-198.056,1.66907,-200.37,-1.53649
block_1,6851,9,11102,1,-200.274,-197.878,1.69862,-200.274,-1.53649
block_1,6852,9,11103,1,-179.067,-176.85,1.91653,-179.067,-1.48137
block_1,6853,9,11104,1,-178.979,-176.685,1.94926,-178.979,-1.48137
block_1,6854,9,11105,1,-200.177,-197.698,1.72817,-200.177,-1.53649
block_1,6855,9,11106,1,-200.077,-197.514,1.75772,-200.077,-1.5365
block_1,6856,9,11107,1,-221.507,-218.948,1.46683,-221.507,-1.58564
block_1,6857,9,11108,1,-221.4,-218.752,1.49285,-221.4,-1.58564
block_1,6858,9,11109,1,-242.65,-239.848,1.24436,-242.65,-1.62818
block_1,6859,9,11110,1,-242.534,-239.633,1.26649,-242.534,-1.62818
block_1,6860,9,11111,1,-221.292,-218.552,1.51886,-221.292,-1.58564
block_1,6861,9,11112,1,-221.182,-218.349,1.54488,-221.182,-1.58564
block_1,6862,9,11113,1,-242.416,-239.414,1.28861,-242.416,-1.62818
block_1,6863,9,11114,1,-242.295,-239.191,1.31074,-242.295,-1.62818
block_1,6864,9,11115,1,-178.888,-176.518,1.982,-178.888,-1.48137
block_1,6865,9,11116,1,-178.796,-176.348,2.01473,-178.796,-1.48137
block_1,6866,9,11117,1,-199.976,-197.327,1.78727,-199.976,-1.5365
block_1,6867,9,11118,1,-199.873,-197.137,1.81682,-199.873,-1.5365
block_1,6868,9,11119,1,-178.703,-176.175,2.04747,-178.703,-1.48137
block_1,6869,9,11120,1,-178.608,-175.999,2.0802,-178.608,-1.48137
block_1,6870,9,11121,1,-199.769,-196.943,1.84637,-199.769,-1.5365
block_1,6871,9,11122,1,-199.663,-196.747,1.87592,-199.663,-1.5365
block_1,6872,9,11123,1,-221.071,-218.142,1.57089,-221.071,-1.58565
block_1,6873,9,11124,1,-220.957,-217.932,1.5969,-220.957,-1.58565
block_1,6874,9,11125,1,-242.173,-238.965,1.33286,-242.173,-1.62819
block_1,6875,9,11126,1,-242.049,-238.735,1.35498,-242.049,-1.62819
block_1,6876,9,11127,1,-220.842,-217.718,1.62291,-220.842,-1.58565
block_1,6877,9,11128,1,-220.725,-217.501,1.64892,-220.725,-1.58565
block_1,6878,9,11129,1,-241.922,-238.501,1.3771,-241.922,-1.62819
block_1,6879,9,11130,1,-241.794,-238.263,1.39922,-241.794,-1.62819
block_1,6880,9,11131,1,-263.802,-260.756,1.00166,-263.802,-1.66348
block_1,6881,9,11132,1,-263.676,-260.522,1.01954,-263.676,-1.66348
block_1,6882,9,11133,1,-284.963,-281.672,0.738712,-284.963,-1.69092
block_1,6883,9,11134,1,-284.826,-281.42,0.751999,-284.826,-1.69092
block_1,6884,9,11135,1,-263.547,-260.284,1.03742,-263.547,-1.66349
block_1,6885,9,11136,1,-263.416,-260.042,1.0553,-263.416,-1.66349
block_1,6886,9,11137,1,-284.687,-281.163,0.765283,-284.687,-1.69092
block_1,6887,9,11138,1,-284.546,-280.901,0.778563,-284.546,-1.69092
block_1,6888,9,11139,1,-306.133,-302.599,0.455531,-306.133,-1.70985
block_1,6889,9,11140,1,-305.987,-302.327,0.463868,-305.987,-1.70986
block_1,6890,9,11141,1,-327.314,-323.535,0.152114,-327.314,-1.71967
block_1,6891,9,11142,1,-327.157,-323.245,0.155147,-327.157,-1.71967
block_1,6892,9,11143,1,-305.837,-302.051,0.472201,-305.837,-1.70986
block_1,6893,9,11144,1,-305.686,-301.77,0.480528,-305.686,-1.70986
block_1,6894,9,11145,1,-326.998,-322.95,0.158174,-326.998,-1.71967
block_1,6895,9,11146,1,-326.835,-322.649,0.161196,-326.835,-1.71967
block_1,6896,9,11147,1,-263.283,-259.796,1.07318,-263.283,-1.66349
block_1,6897,9,11148,1,-263.148,-259.546,1.09105,-263.148,-1.66349
block_1,6898,9,11149,1,-284.403,-280.636,0.79184,-284.403,-1.69092
block_1,6899,9,11150,1,-284.257,-280.365,0.805114,-284.257,-1.69093
block_1,6900,9,11151,1,-263.011,-259.291,1.10892,-263.011,-1.66349
block_1,6901,9,11152,1,-262.871,-259.033,1.12679,-262.871,-1.66349
block_1,6902,9,11153,1,-284.108,-280.091,0.818385,-284.108,-1.69093
block_1,6903,9,11154,1,-283.957,-279.812,0.831652,-283.957,-1.69093
block_1,6904,9,11155,1,-305.531,-301.485,0.488852,-305.531,-1.70986
block_1,6905,9,11156,1,-305.375,-301.195,0.497172,-305.375,-1.70986
block_1,6906,9,11157,1,-326.671,-322.344,0.164212,-326.671,-1.71967
block_1,6907,9,11158,1,-326.503,-322.034,0.167223,-326.503,-1.71967
block_1,6908,9,11159,1,-305.215,-300.9,0.505487,-305.215,-1.70986
block_1,6909,9,11160,1,-305.053,-300.6,0.513799,-305.053,-1.70987
block_1,6910,9,11161,1,-326.332,-321.719,0.17023,-326.332,-1.71967
block_1,6911,9,11162,1,-326.159,-321.398,0.173232,-326.159,-1.71968
block_1,6912,9,11163,1,-11.4015,-10.1642,2.94219,-10.3205,-0.9007
block_1,6913,9,11164,1,-11.4135,-10.1537,2.98766,-10.3148,-0.900701
block_1,6914,9,11165,1,-31.5004,-30.8627,2.91927,-31.3357,-0.980985
block_1,6915,9,11166,1,-31.483,-30.8308,2.96439,-31.3185,-0.980986
block_1,6916,9,11167,1,-11.4256,-10.143,3.03313,-10.309,-0.900703
block_1,6917,9,11168,1,-11.4378,-10.1321,3.07861,-10.3031,-0.900704
block_1,6918,9,11169,1,-31.4654,-30.7985,3.00951,-31.301,-0.980988
block_1,6919,9,11170,1,-31.4475,-30.7656,3.05463,-31.2833,-0.980989
block_1,6920,9,11171,1,-52.3519,-51.5622,2.87329,-52.3519,-1.06033
block_1,6921,9,11172,1,-52.3232,-51.509,2.9177,-52.3232,-1.06033
block_1,6922,9,11173,1,-73.37,-72.2635,2.80423,-73.37,-1.1381
block_1,6923,9,11174,1,-73.3297,-72.189,2.84759,-73.3297,-1.1381
block_1,6924,9,11175,1,-52.2941,-51.455,2.96211,-52.2941,-1.06033
block_1,6925,9,11176,1,-52.2645,-51.4002,3.00653,-52.2645,-1.06033
block_1,6926,9,11177,1,-73.2889,-72.1133,2.89094,-73.2889,-1.13811
block_1,6927,9,11178,1,-73.2474,-72.0365,2.9343,-73.2474,-1.13811
block_1,6928,9,11179,1,-11.4501,-10.1211,3.12408,-10.2972,-0.900705
block_1,6929,9,11180,1,-11.4625,-10.11,3.16956,-10.2912,-0.900707
block_1,6930,9,11181,1,-31.4292,-30.7323,3.09976,-31.2653,-0.98099
block_1,6931,9,11182,1,-31.4106,-30.6985,3.14489,-31.247,-0.980992
block_1,6932,9,11183,1,-11.4751,-10.0986,3.21504,-10.2851,-0.900708
block_1,6933,9,11184,1,-11.4877,-10.0872,3.26053,-10.2789,-0.90071
block_1,6934,9,11185,1,-31.3918,-30.6642,3.19002,-31.2285,-0.980993
block_1,6935,9,11186,1,-31.3726,-30.6295,3.23515,-31.2098,-0.980995
block_1,6936,9,11187,1,-52.2344,-51.3446,3.05095,-52.2344,-1.06033
block_1,6937,9,11188,1,-52.204,-51.2881,3.09537,-52.204,-1.06034
block_1,6938,9,11189,1,-73.2054,-71.9586,2.97765,-73.2054,-1.13811
block_1,6939,9,11190,1,-73.1627,-71.8795,3.02101,-73.1627,-1.13811
block_1,6940,9,11191,1,-52.1731,-51.2309,3.13979,-52.1731,-1.06034
block_1,6941,9,11192,1,-52.1417,-51.1728,3.18422,-52.1417,-1.06034
block_1,6942,9,11193,1,-73.1194,-71.7993,3.06438,-73.1194,-1.13811
block_1,6943,9,11194,1,-73.0755,-71.718,3.10774,-73.0755,-1.13811
block_1,6944,9,11195,1,-94.3905,-92.9672,2.71211,-94.3905,-1.21368
block_1,6945,9,11196,1,-94.3387,-92.8714,2.75405,-94.3387,-1.21368
block_1,6946,9,11197,1,-115.414,-113.674,2.59692,-115.414,-1.28642
block_1,6947,9,11198,1,-115.351,-113.557,2.63709,-115.351,-1.28642
block_1,6948,9,11199,1,-94.2862,-92.7741,2.79599,-94.2862,-1.21368
block_1,6949,9,11200,1,-94.2329,-92.6753,2.83793,-94.2329,-1.21368
block_1,6950,9,11201,1,-115.287,-113.438,2.67726,-115.287,-1.28642
block_1,6951,9,11202,1,-115.222,-113.317,2.71743,-115.222,-1.28643
block_1,6952,9,11203,1,-136.442,-134.385,2.45866,-136.442,-1.35571
block_1,6953,9,11204,1,-136.367,-134.246,2.49671,-136.367,-1.35571
block_1,6954,9,11205,1,-157.474,-155.1,2.29733,-157.474,-1.4209
block_1,6955,9,11206,1,-157.388,-154.94,2.3329,-157.388,-1.4209
block_1,6956,9,11207,1,-136.291,-134.106,2.53475,-136.291,-1.35571
block_1,6957,9,11208,1,-136.214,-133.963,2.5728,-136.214,-1.35571
block_1,6958,9,11209,1,-157.3,-154.778,2.36847,-157.3,-1.4209
block_1,6959,9,11210,1,-157.211,-154.614,2.40404,-157.211,-1.42091
block_1,6960,9,11211,1,-94.1788,-92.5751,2.87987,-94.1788,-1.21368
block_1,6961,9,11212,1,-94.1239,-92.4734,2.92182,-94.1239,-1.21369
block_1,6962,9,11213,1,-115.155,-113.195,2.7576,-115.155,-1.28643
block_1,6963,9,11214,1,-115.088,-113.07,2.79778,-115.088,-1.28643
block_1,6964,9,11215,1,-94.0682,-92.3702,2.96376,-94.0682,-1.21369
block_1,6965,9,11216,1,-94.0117,-92.2656,3.00571,-94.0117,-1.21369
block_1,6966,9,11217,1,-115.02,-112.944,2.83795,-115.02,-1.28643
block_1,6967,9,11218,1,-114.951,-112.816,2.87813,-114.951,-1.28643
block_1,6968,9,11219,1,-136.136,-133.818,2.61085,-136.136,-1.35571
block_1,6969,9,11220,1,-136.057,-133.671,2.6489,-136.057,-1.35571
block_1,6970,9,11221,1,-157.121,-154.446,2.43961,-157.121,-1.42091
block_1,6971,9,11222,1,-157.029,-154.277,2.47518,-157.029,-1.42091
block_1,6972,9,11223,1,-135.976,-133.522,2.68695,-135.976,-1.35572
block_1,6973,9,11224,1,-135.894,-133.371,2.725,-135.894,-1.35572
block_1,6974,9,11225,1,-156.937,-154.105,2.51075,-156.937,-1.42091
block_1,6975,9,11226,1,-156.842,-153.93,2.54632,-156.842,-1.42091
block_1,6976,9,11227,1,-11.5005,-10.0755,3.30601,-10.2726,-0.900711
block_1,6977,9,11228,1,-11.5133,-10.0637,3.3515,-10.2662,-0.900713
block_1,6978,9,11229,1,-31.3531,-30.5942,3.28028,-31.1907,-0.980997
block_1,6979,9,11230,1,-31.3333,-30.5585,3.32542,-31.1715,-0.980998
block_1,6980,9,11231,1,-11.5263,-10.0517,3.39699,-10.2597,-0.900714
block_1,6981,9,11232,1,-11.5393,-10.0396,3.44248,-10.2532,-0.900716
block_1,6982,9,11233,1,-31.3132,-30.5222,3.37055,-31.1519,-0.981
block_1,6983,9,11234,1,-31.2928,-30.4855,3.41569,-31.1321,-0.981001
block_1,6984,9,11235,1,-52.11,-51.114,3.22864,-52.11,-1.06034
block_1,6985,9,11236,1,-52.0778,-51.0543,3.27307,-52.0778,-1.06034
block_1,6986,9,11237,1,-73.031,-71.6355,3.1511,-73.031,-1.13812
block_1,6987,9,11238,1,-72.9858,-71.5519,3.19447,-72.9858,-1.13812
block_1,6988,9,11239,1,-52.0451,-50.9938,3.3175,-52.0451,-1.06034
block_1,6989,9,11240,1,-52.012,-50.9325,3.36193,-52.012,-1.06035
block_1,6990,9,11241,1,-72.9401,-71.4671,3.23784,-72.9401,-1.13812
block_1,6991,9,11242,1,-72.8937,-71.3812,3.28121,-72.8937,-1.13812
block_1,6992,9,11243,1,-11.5525,-10.0273,3.48797,-10.2466,-0.900717
block_1,6993,9,11244,1,-11.5657,-10.0149,3.53346,-10.2399,-0.900719
block_1,6994,9,11245,1,-31.2721,-30.4483,3.46083,-31.112,-0.981003
block_1,6995,9,11246,1,-31.2511,-30.4106,3.50597,-31.0917,-0.981005
block_1,6996,9,11247,1,-11.579,-10.0022,3.57896,-10.233,-0.90072
block_1,6997,9,11248,1,-11.5925,-9.98947,3.62445,-10.2262,-0.900722
block_1,6998,9,11249,1,-31.2298,-30.3724,3.55111,-31.0711,-0.981006
block_1,6999,9,11250,1,-31.2082,-30.3338,3.59625,-31.0502,-0.981008
block_1,7000,9,11251,1,-51.9785,-50.8704,3.40636,-51.9785,-1.06035
block_1,7001,9,11252,1,-51.9445,-50.8074,3.4508,-51.9445,-1.06035
block_1,7002,9,11253,1,-72.8468,-71.2942,3.32458,-72.8468,-1.13812
block_1,7003,9,11254,1,-72.7992,-71.206,3.36795,-72.7992,-1.13813
block_1,7004,9,11255,1,-51.9102,-50.7437,3.49523,-51.9102,-1.06035
block_1,7005,9,11256,1,-51.8753,-50.6791,3.53967,-51.8753,-1.06035
block_1,7006,9,11257,1,-72.751,-71.1167,3.41132,-72.751,-1.13813
block_1,7007,9,11258,1,-72.7022,-71.0263,3.45469,-72.7022,-1.13813
block_1,7008,9,11259,1,-93.9544,-92.1595,3.04766,-93.9544,-1.21369
block_1,7009,9,11260,1,-93.8964,-92.0519,3.08961,-93.8964,-1.21369
block_1,7010,9,11261,1,-114.881,-112.687,2.91831,-114.881,-1.28644
block_1,7011,9,11262,1,-114.81,-112.555,2.95849,-114.81,-1.28644
block_1,7012,9,11263,1,-93.8376,-91.9429,3.13156,-93.8376,-1.21369
block_1,7013,9,11264,1,-93.7779,-91.8324,3.17351,-93.7779,-1.2137
block_1,7014,9,11265,1,-114.738,-112.422,2.99867,-114.738,-1.28644
block_1,7015,9,11266,1,-114.665,-112.287,3.03885,-114.665,-1.28644
block_1,7016,9,11267,1,-135.812,-133.218,2.76305,-135.812,-1.35572
block_1,7017,9,11268,1,-135.728,-133.062,2.80111,-135.728,-1.35572
block_1,7018,9,11269,1,-156.747,-153.753,2.5819,-156.747,-1.42092
block_1,7019,9,11270,1,-156.65,-153.574,2.61747,-156.65,-1.42092
block_1,7020,9,11271,1,-135.643,-132.905,2.83916,-135.643,-1.35572
block_1,7021,9,11272,1,-135.557,-132.745,2.87722,-135.557,-1.35573
block_1,7022,9,11273,1,-156.552,-153.392,2.65304,-156.552,-1.42092
block_1,7023,9,11274,1,-156.453,-153.208,2.68862,-156.453,-1.42092
block_1,7024,9,11275,1,-93.7175,-91.7205,3.21546,-93.7175,-1.2137
block_1,7025,9,11276,1,-93.6563,-91.6071,3.25742,-93.6563,-1.2137
block_1,7026,9,11277,1,-114.591,-112.15,3.07903,-114.591,-1.28644
block_1,7027,9,11278,1,-114.517,-112.011,3.11921,-114.517,-1.28645
block_1,7028,9,11279,1,-93.5943,-91.4922,3.29938,-93.5943,-1.2137
block_1,7029,9,11280,1,-93.5316,-91.3758,3.34133,-93.5316,-1.2137
block_1,7030,9,11281,1,-114.441,-111.871,3.1594,-114.441,-1.28645
block_1,7031,9,11282,1,-114.364,-111.729,3.19958,-114.364,-1.28645
block_1,7032,9,11283,1,-135.469,-132.583,2.91527,-135.469,-1.35573
block_1,7033,9,11284,1,-135.381,-132.419,2.95333,-135.381,-1.35573
block_1,7034,9,11285,1,-156.352,-153.021,2.72419,-156.352,-1.42092
block_1,7035,9,11286,1,-156.25,-152.832,2.75977,-156.25,-1.42093
block_1,7036,9,11287,1,-135.291,-132.253,2.99139,-135.291,-1.35573
block_1,7037,9,11288,1,-135.201,-132.085,3.02945,-135.201,-1.35574
block_1,7038,9,11289,1,-156.146,-152.641,2.79534,-156.146,-1.42093
block_1,7039,9,11290,1,-156.042,-152.446,2.83092,-156.042,-1.42093
block_1,7040,9,11291,1,-178.512,-175.821,2.11294,-178.512,-1.48138
block_1,7041,9,11292,1,-178.414,-175.64,2.14567,-178.414,-1.48138
block_1,7042,9,11293,1,-199.555,-196.548,1.90547,-199.555,-1.5365
block_1,7043,9,11294,1,-199.446,-196.345,1.93502,-199.446,-1.53651
block_1,7044,9,11295,1,-178.314,-175.456,2.17841,-178.314,-1.48138
block_1,7045,9,11296,1,-178.214,-175.269,2.21114,-178.214,-1.48138
block_1,7046,9,11297,1,-199.335,-196.14,1.96457,-199.335,-1.53651
block_1,7047,9,11298,1,-199.222,-195.931,1.99412,-199.222,-1.53651
block_1,7048,9,11299,1,-220.606,-217.281,1.67493,-220.606,-1.58565
block_1,7049,9,11300,1,-220.485,-217.057,1.70094,-220.485,-1.58566
block_1,7050,9,11301,1,-241.663,-238.022,1.42133,-241.663,-1.62819
block_1,7051,9,11302,1,-241.531,-237.777,1.44345,-241.531,-1.6282
block_1,7052,9,11303,1,-220.362,-216.83,1.72695,-220.362,-1.58566
block_1,7053,9,11304,1,-220.237,-216.599,1.75296,-220.237,-1.58566
block_1,7054,9,11305,1,-241.397,-237.528,1.46556,-241.397,-1.6282
block_1,7055,9,11306,1,-241.26,-237.275,1.48767,-241.26,-1.6282
block_1,7056,9,11307,1,-178.111,-175.08,2.24388,-178.111,-1.48138
block_1,7057,9,11308,1,-178.008,-174.888,2.27662,-178.008,-1.48139
block_1,7058,9,11309,1,-199.108,-195.719,2.02367,-199.108,-1.53651
block_1,7059,9,11310,1,-198.992,-195.504,2.05322,-198.992,-1.53651
block_1,7060,9,11311,1,-177.902,-174.693,2.30936,-177.902,-1.48139
block_1,7061,9,11312,1,-177.796,-174.495,2.34209,-177.796,-1.48139
block_1,7062,9,11313,1,-198.874,-195.286,2.08277,-198.874,-1.53652
block_1,7063,9,11314,1,-198.755,-195.065,2.11232,-198.755,-1.53652
block_1,7064,9,11315,1,-220.111,-216.365,1.77897,-220.111,-1.58566
block_1,7065,9,11316,1,-219.983,-216.128,1.80498,-219.983,-1.58566
block_1,7066,9,11317,1,-241.122,-237.019,1.50978,-241.122,-1.6282
block_1,7067,9,11318,1,-240.981,-236.759,1.53189,-240.981,-1.6282
block_1,7068,9,11319,1,-219.853,-215.887,1.83098,-219.853,-1.58567
block_1,7069,9,11320,1,-219.721,-215.643,1.85699,-219.721,-1.58567
block_1,7070,9,11321,1,-240.839,-236.495,1.554,-240.839,-1.62821
block_1,7071,9,11322,1,-240.694,-236.227,1.57611,-240.694,-1.62821
block_1,7072,9,11323,1,-262.729,-258.771,1.14466,-262.729,-1.6635
block_1,7073,9,11324,1,-262.586,-258.504,1.16252,-262.586,-1.6635
block_1,7074,9,11325,1,-283.804,-279.528,0.844918,-283.804,-1.69093
block_1,7075,9,11326,1,-283.649,-279.241,0.85818,-283.649,-1.69093
block_1,7076,9,11327,1,-262.439,-258.234,1.18039,-262.439,-1.6635
block_1,7077,9,11328,1,-262.291,-257.959,1.19825,-262.291,-1.6635
block_1,7078,9,11329,1,-283.491,-278.948,0.87144,-283.491,-1.69093
block_1,7079,9,11330,1,-283.331,-278.652,0.884698,-283.331,-1.69094
block_1,7080,9,11331,1,-304.889,-300.296,0.522108,-304.889,-1.70987
block_1,7081,9,11332,1,-304.722,-299.987,0.530413,-304.722,-1.70987
block_1,7082,9,11333,1,-325.984,-321.073,0.176229,-325.984,-1.71968
block_1,7083,9,11334,1,-325.805,-320.743,0.179223,-325.805,-1.71968
block_1,7084,9,11335,1,-304.552,-299.673,0.538715,-304.552,-1.70987
block_1,7085,9,11336,1,-304.38,-299.354,0.547014,-304.38,-1.70987
block_1,7086,9,11337,1,-325.624,-320.407,0.182212,-325.624,-1.71968
block_1,7087,9,11338,1,-325.44,-320.067,0.185198,-325.44,-1.71968
block_1,7088,9,11339,1,-262.141,-257.68,1.21611,-262.141,-1.6635
block_1,7089,9,11340,1,-261.988,-257.398,1.23397,-261.988,-1.66351
block_1,7090,9,11341,1,-283.168,-278.351,0.897953,-283.168,-1.69094
block_1,7091,9,11342,1,-283.003,-278.046,0.911207,-283.003,-1.69094
block_1,7092,9,11343,1,-261.833,-257.111,1.25183,-261.833,-1.66351
block_1,7093,9,11344,1,-261.676,-256.82,1.26968,-261.676,-1.66351
block_1,7094,9,11345,1,-282.836,-277.736,0.924458,-282.836,-1.69094
block_1,7095,9,11346,1,-282.667,-277.422,0.937707,-282.667,-1.69094
block_1,7096,9,11347,1,-304.206,-299.031,0.55531,-304.206,-1.70988
block_1,7097,9,11348,1,-304.029,-298.703,0.563603,-304.029,-1.70988
block_1,7098,9,11349,1,-325.253,-319.721,0.18818,-325.253,-1.71969
block_1,7099,9,11350,1,-325.064,-319.37,0.191158,-325.064,-1.71969
block_1,7100,9,11351,1,-303.849,-298.37,0.571893,-303.849,-1.70988
block_1,7101,9,11352,1,-303.667,-298.033,0.580181,-303.667,-1.70988
block_1,7102,9,11353,1,-324.872,-319.015,0.194133,-324.872,-1.71969
block_1,7103,9,11354,1,-324.677,-318.654,0.197105,-324.677,-1.71969
block_1,7104,9,11355,1,-177.687,-174.294,2.37483,-177.687,-1.48139
block_1,7105,9,11356,1,-177.578,-174.091,2.40757,-177.578,-1.48139
block_1,7106,9,11357,1,-198.634,-194.841,2.14187,-198.634,-1.53652
block_1,7107,9,11358,1,-198.511,-194.614,2.17141,-198.511,-1.53652
block_1,7108,9,11359,1,-177.466,-173.885,2.44031,-177.466,-1.4814
block_1,7109,9,11360,1,-177.354,-173.676,2.47305,-177.354,-1.4814
block_1,7110,9,11361,1,-198.387,-194.384,2.20096,-198.387,-1.53652
block_1,7111,9,11362,1,-198.261,-194.15,2.23051,-198.261,-1.53653
block_1,7112,9,11363,1,-219.587,-215.395,1.88299,-219.587,-1.58567
block_1,7113,9,11364,1,-219.452,-215.144,1.909,-219.452,-1.58567
block_1,7114,9,11365,1,-240.548,-235.956,1.59822,-240.548,-1.62821
block_1,7115,9,11366,1,-240.399,-235.681,1.62033,-240.399,-1.62821
block_1,7116,9,11367,1,-219.314,-214.889,1.935,-219.314,-1.58567
block_1,7117,9,11368,1,-219.175,-214.631,1.96101,-219.175,-1.58568
block_1,7118,9,11369,1,-240.249,-235.402,1.64243,-240.249,-1.62821
block_1,7119,9,11370,1,-240.096,-235.119,1.66454,-240.096,-1.62822
block_1,7120,9,11371,1,-177.24,-173.464,2.50579,-177.24,-1.4814
block_1,7121,9,11372,1,-177.124,-173.25,2.53853,-177.124,-1.4814
block_1,7122,9,11373,1,-198.133,-193.914,2.26006,-198.133,-1.53653
block_1,7123,9,11374,1,-198.004,-193.674,2.28961,-198.004,-1.53653
block_1,7124,9,11375,1,-177.007,-173.033,2.57127,-177.007,-1.48141
block_1,7125,9,11376,1,-176.888,-172.813,2.60401,-176.888,-1.48141
block_1,7126,9,11377,1,-197.873,-193.431,2.31916,-197.873,-1.53653
block_1,7127,9,11378,1,-197.74,-193.186,2.34871,-197.74,-1.53654
block_1,7128,9,11379,1,-219.034,-214.37,1.98701,-219.034,-1.58568
block_1,7129,9,11380,1,-218.891,-214.105,2.01302,-218.891,-1.58568
block_1,7130,9,11381,1,-239.942,-234.833,1.68664,-239.942,-1.62822
block_1,7131,9,11382,1,-239.785,-234.543,1.70874,-239.785,-1.62822
block_1,7132,9,11383,1,-218.746,-213.837,2.03902,-218.746,-1.58568
block_1,7133,9,11384,1,-218.6,-213.565,2.06502,-218.6,-1.58569
block_1,7134,9,11385,1,-239.627,-234.249,1.73085,-239.627,-1.62822
block_1,7135,9,11386,1,-239.466,-233.951,1.75295,-239.466,-1.62823
block_1,7136,9,11387,1,-261.517,-256.525,1.28754,-261.517,-1.66351
block_1,7137,9,11388,1,-261.355,-256.226,1.30539,-261.355,-1.66351
block_1,7138,9,11389,1,-282.495,-277.103,0.950954,-282.495,-1.69095
block_1,7139,9,11390,1,-282.32,-276.78,0.9642,-282.32,-1.69095
block_1,7140,9,11391,1,-261.192,-255.923,1.32324,-261.192,-1.66352
block_1,7141,9,11392,1,-261.026,-255.616,1.34109,-261.026,-1.66352
block_1,7142,9,11393,1,-282.144,-276.453,0.977443,-282.144,-1.69095
block_1,7143,9,11394,1,-281.965,-276.121,0.990685,-281.965,-1.69095
block_1,7144,9,11395,1,-303.482,-297.691,0.588466,-303.482,-1.70988
block_1,7145,9,11396,1,-303.295,-297.344,0.596749,-303.295,-1.70989
block_1,7146,9,11397,1,-324.48,-318.288,0.200073,-324.48,-1.71969
block_1,7147,9,11398,1,-324.28,-317.917,0.203039,-324.28,-1.71969
block_1,7148,9,11399,1,-303.105,-296.992,0.605029,-303.105,-1.70989
block_1,7149,9,11400,1,-302.913,-296.636,0.613307,-302.913,-1.70989
block_1,7150,9,11401,1,-324.077,-317.542,0.206002,-324.077,-1.7197
block_1,7151,9,11402,1,-323.871,-317.161,0.208962,-323.871,-1.7197
block_1,7152,9,11403,1,-260.858,-255.304,1.35894,-260.858,-1.66352
block_1,7153,9,11404,1,-260.688,-254.989,1.37679,-260.688,-1.66352
block_1,7154,9,11405,1,-281.783,-275.785,1.00393,-281.783,-1.69096
block_1,7155,9,11406,1,-281.599,-275.444,1.01716,-281.599,-1.69096
block_1,7156,9,11407,1,-260.516,-254.67,1.39464,-260.516,-1.66353
block_1,7157,9,11408,1,-260.341,-254.346,1.41249,-260.341,-1.66353
block_1,7158,9,11409,1,-281.413,-275.099,1.0304,-281.413,-1.69096
block_1,7159,9,11410,1,-281.225,-274.75,1.04364,-281.225,-1.69096
block_1,7160,9,11411,1,-302.718,-296.275,0.621584,-302.718,-1.70989
block_1,7161,9,11412,1,-302.52,-295.909,0.629858,-302.52,-1.70989
block_1,7162,9,11413,1,-323.663,-316.775,0.211919,-323.663,-1.7197
block_1,7163,9,11414,1,-323.452,-316.384,0.214874,-323.452,-1.7197
block_1,7164,9,11415,1,-302.32,-295.538,0.63813,-302.32,-1.7099
block_1,7165,9,11416,1,-302.118,-295.163,0.6464,-302.118,-1.7099
block_1,7166,9,11417,1,-323.238,-315.988,0.217826,-323.238,-1.7197
block_1,7167,9,11418,1,-323.021,-315.586,0.220776,-323.021,-1.71971
block_1,7168,9,11419,1,-11.606,-9.97654,3.66995,-10.2192,-0.900723
block_1,7169,9,11420,1,-11.6195,-9.96344,3.71545,-10.2121,-0.900725
block_1,7170,9,11421,1,-31.1863,-30.2946,3.6414,-31.0291,-0.98101
block_1,7171,9,11422,1,-31.1641,-30.255,3.68655,-31.0077,-0.981012
block_1,7172,9,11423,1,-11.6332,-9.95018,3.76095,-10.205,-0.900727
block_1,7173,9,11424,1,-11.6469,-9.93676,3.80645,-10.1977,-0.900728
block_1,7174,9,11425,1,-31.1415,-30.2149,3.73169,-30.9861,-0.981013
block_1,7175,9,11426,1,-31.1187,-30.1742,3.77684,-30.9641,-0.981015
block_1,7176,9,11427,1,-51.8401,-50.6138,3.58411,-51.8401,-1.06036
block_1,7177,9,11428,1,-51.8043,-50.5476,3.62854,-51.8043,-1.06036
block_1,7178,9,11429,1,-72.6528,-70.9347,3.49807,-72.6528,-1.13813
block_1,7179,9,11430,1,-72.6028,-70.8419,3.54144,-72.6028,-1.13813
block_1,7180,9,11431,1,-51.7682,-50.4806,3.67298,-51.7682,-1.06036
block_1,7181,9,11432,1,-51.7316,-50.4128,3.71742,-51.7316,-1.06036
block_1,7182,9,11433,1,-72.5521,-70.7481,3.58482,-72.5521,-1.13814
block_1,7183,9,11434,1,-72.5009,-70.6531,3.6282,-72.5009,-1.13814
block_1,7184,9,11435,1,-11.6608,-9.92318,3.85195,-10.1904,-0.90073
block_1,7185,9,11436,1,-11.6746,-9.90944,3.89746,-10.183,-0.900732
block_1,7186,9,11437,1,-31.0956,-30.1331,3.82199,-30.942,-0.981017
block_1,7187,9,11438,1,-31.0721,-30.0915,3.86714,-30.9195,-0.981019
block_1,7188,9,11439,1,-11.6886,-9.89554,3.94296,-10.1755,-0.900734
block_1,7189,9,11440,1,-11.7026,-9.88148,3.98847,-10.1679,-0.900735
block_1,7190,9,11441,1,-31.0484,-30.0495,3.91229,-30.8968,-0.981021
block_1,7191,9,11442,1,-31.0243,-30.0069,3.95744,-30.8739,-0.981023
block_1,7192,9,11443,1,-51.6946,-50.3441,3.76187,-51.6946,-1.06036
block_1,7193,9,11444,1,-51.6572,-50.2747,3.80631,-51.6572,-1.06037
block_1,7194,9,11445,1,-72.449,-70.5569,3.67158,-72.449,-1.13814
block_1,7195,9,11446,1,-72.3965,-70.4596,3.71496,-72.3965,-1.13814
block_1,7196,9,11447,1,-51.6193,-50.2044,3.85075,-51.6193,-1.06037
block_1,7197,9,11448,1,-51.5809,-50.1334,3.8952,-51.5809,-1.06037
block_1,7198,9,11449,1,-72.3434,-70.3612,3.75834,-72.3434,-1.13814
block_1,7199,9,11450,1,-72.2897,-70.2616,3.80172,-72.2897,-1.13815
block_1,7200,9,11451,1,-93.468,-91.258,3.38329,-93.468,-1.21371
block_1,7201,9,11452,1,-93.4037,-91.1388,3.42525,-93.4037,-1.21371
block_1,7202,9,11453,1,-114.286,-111.585,3.23977,-114.286,-1.28645
block_1,7203,9,11454,1,-114.208,-111.439,3.27995,-114.208,-1.28645
block_1,7204,9,11455,1,-93.3385,-91.018,3.46721,-93.3385,-1.21371
block_1,7205,9,11456,1,-93.2726,-90.8958,3.50917,-93.2726,-1.21371
block_1,7206,9,11457,1,-114.128,-111.291,3.32014,-114.128,-1.28646
block_1,7207,9,11458,1,-114.048,-111.142,3.36033,-114.048,-1.28646
block_1,7208,9,11459,1,-135.109,-131.915,3.0675,-135.109,-1.35574
block_1,7209,9,11460,1,-135.016,-131.743,3.10556,-135.016,-1.35574
block_1,7210,9,11461,1,-155.936,-152.25,2.8665,-155.936,-1.42093
block_1,7211,9,11462,1,-155.828,-152.051,2.90208,-155.828,-1.42094
block_1,7212,9,11463,1,-134.922,-131.568,3.14362,-134.922,-1.35574
block_1,7213,9,11464,1,-134.826,-131.392,3.18168,-134.826,-1.35574
block_1,7214,9,11465,1,-155.72,-151.85,2.93765,-155.72,-1.42094
block_1,7215,9,11466,1,-155.61,-151.646,2.97323,-155.61,-1.42094
block_1,7216,9,11467,1,-93.2059,-90.7721,3.55113,-93.2059,-1.21371
block_1,7217,9,11468,1,-93.1384,-90.647,3.59309,-93.1384,-1.21372
block_1,7218,9,11469,1,-113.966,-110.991,3.40052,-113.966,-1.28646
block_1,7219,9,11470,1,-113.883,-110.838,3.44071,-113.883,-1.28646
block_1,7220,9,11471,1,-93.0701,-90.5204,3.63506,-93.0701,-1.21372
block_1,7221,9,11472,1,-93.001,-90.3923,3.67702,-93.001,-1.21372
block_1,7222,9,11473,1,-113.8,-110.683,3.4809,-113.8,-1.28647
block_1,7223,9,11474,1,-113.716,-110.526,3.52109,-113.716,-1.28647
block_1,7224,9,11475,1,-134.73,-131.213,3.21975,-134.73,-1.35575
block_1,7225,9,11476,1,-134.632,-131.032,3.25781,-134.632,-1.35575
block_1,7226,9,11477,1,-155.499,-151.44,3.00881,-155.499,-1.42094
block_1,7227,9,11478,1,-155.386,-151.231,3.04439,-155.386,-1.42095
block_1,7228,9,11479,1,-134.534,-130.849,3.29587,-134.534,-1.35575
block_1,7229,9,11480,1,-134.434,-130.664,3.33393,-134.434,-1.35575
block_1,7230,9,11481,1,-155.272,-151.02,3.07997,-155.272,-1.42095
block_1,7231,9,11482,1,-155.157,-150.806,3.11555,-155.157,-1.42095
block_1,7232,9,11483,1,-11.7167,-9.86726,4.03397,-10.1602,-0.900737
block_1,7233,9,11484,1,-11.7308,-9.85287,4.07948,-10.1525,-0.900739
block_1,7234,9,11485,1,-31.0009,-29.9638,4.0026,-30.8507,-0.981024
block_1,7235,9,11486,1,-30.9782,-29.9203,4.04775,-30.8272,-0.981026
block_1,7236,9,11487,1,-11.745,-9.83833,4.12499,-10.1446,-0.900741
block_1,7237,9,11488,1,-11.7592,-9.82362,4.1705,-10.1367,-0.900742
block_1,7238,9,11489,1,-30.9553,-29.8763,4.09291,-30.8034,-0.981028
block_1,7239,9,11490,1,-30.9321,-29.8318,4.13807,-30.7794,-0.98103
block_1,7240,9,11491,1,-51.5422,-50.0615,3.93964,-51.5422,-1.06037
block_1,7241,9,11492,1,-51.503,-49.9888,3.98409,-51.503,-1.06037
block_1,7242,9,11493,1,-72.2354,-70.1609,3.8451,-72.2354,-1.13815
block_1,7243,9,11494,1,-72.1805,-70.0591,3.88849,-72.1805,-1.13815
block_1,7244,9,11495,1,-51.4633,-49.9153,4.02854,-51.4633,-1.06038
block_1,7245,9,11496,1,-51.4232,-49.841,4.07299,-51.4232,-1.06038
block_1,7246,9,11497,1,-72.125,-69.9561,3.93187,-72.125,-1.13815
block_1,7247,9,11498,1,-72.0688,-69.8519,3.97526,-72.0688,-1.13815
block_1,7248,9,11499,1,-11.7735,-9.80875,4.21601,-10.1287,-0.900744
block_1,7249,9,11500,1,-11.7879,-9.79372,4.26152,-10.1206,-0.900746
block_1,7250,9,11501,1,-30.9086,-29.7868,4.18322,-30.7552,-0.981032
block_1,7251,9,11502,1,-30.8849,-29.7413,4.22838,-30.7306,-0.981034
block_1,7252,9,11503,1,-11.8023,-9.77853,4.30703,-10.1124,-0.900748
block_1,7253,9,11504,1,-11.8167,-9.76318,4.35254,-10.1041,-0.90075
block_1,7254,9,11505,1,-30.8609,-29.6953,4.27354,-30.7059,-0.981036
block_1,7255,9,11506,1,-30.8367,-29.6488,4.3187,-30.6808,-0.981038
block_1,7256,9,11507,1,-51.3827,-49.7658,4.11743,-51.3827,-1.06038
block_1,7257,9,11508,1,-51.3418,-49.6899,4.16188,-51.3418,-1.06038
block_1,7258,9,11509,1,-72.012,-69.7467,4.01864,-72.012,-1.13816
block_1,7259,9,11510,1,-71.9547,-69.6403,4.06203,-71.9547,-1.13816
block_1,7260,9,11511,1,-51.3004,-49.6131,4.20634,-51.3004,-1.06038
block_1,7261,9,11512,1,-51.2585,-49.5355,4.25079,-51.2585,-1.06039
block_1,7262,9,11513,1,-71.8967,-69.5327,4.10542,-71.8967,-1.13816
block_1,7263,9,11514,1,-71.8381,-69.424,4.14881,-71.8381,-1.13816
block_1,7264,9,11515,1,-92.9312,-90.2628,3.71898,-92.9312,-1.21372
block_1,7265,9,11516,1,-92.8605,-90.1318,3.76095,-92.8605,-1.21373
block_1,7266,9,11517,1,-113.63,-110.368,3.56128,-113.63,-1.28647
block_1,7267,9,11518,1,-113.544,-110.208,3.60147,-113.544,-1.28647
block_1,7268,9,11519,1,-92.7891,-89.9993,3.80292,-92.7891,-1.21373
block_1,7269,9,11520,1,-92.7169,-89.8654,3.84488,-92.7169,-1.21373
block_1,7270,9,11521,1,-113.456,-110.046,3.64167,-113.456,-1.28647
block_1,7271,9,11522,1,-113.368,-109.882,3.68186,-113.368,-1.28648
block_1,7272,9,11523,1,-134.333,-130.477,3.372,-134.333,-1.35576
block_1,7273,9,11524,1,-134.231,-130.287,3.41006,-134.231,-1.35576
block_1,7274,9,11525,1,-155.04,-150.59,3.15113,-155.04,-1.42095
block_1,7275,9,11526,1,-154.923,-150.372,3.18671,-154.923,-1.42096
block_1,7276,9,11527,1,-134.128,-130.096,3.44812,-134.128,-1.35576
block_1,7277,9,11528,1,-134.023,-129.902,3.48619,-134.023,-1.35576
block_1,7278,9,11529,1,-154.803,-150.151,3.22229,-154.803,-1.42096
block_1,7279,9,11530,1,-154.683,-149.928,3.25787,-154.683,-1.42096
block_1,7280,9,11531,1,-92.6438,-89.73,3.88685,-92.6438,-1.21373
block_1,7281,9,11532,1,-92.57,-89.5931,3.92882,-92.57,-1.21374
block_1,7282,9,11533,1,-113.279,-109.716,3.72205,-113.279,-1.28648
block_1,7283,9,11534,1,-113.189,-109.549,3.76225,-113.189,-1.28648
block_1,7284,9,11535,1,-92.4954,-89.4548,3.97079,-92.4954,-1.21374
block_1,7285,9,11536,1,-92.4201,-89.315,4.01276,-92.4201,-1.21374
block_1,7286,9,11537,1,-113.097,-109.38,3.80244,-113.097,-1.28648
block_1,7287,9,11538,1,-113.005,-109.209,3.84264,-113.005,-1.28649
block_1,7288,9,11539,1,-133.918,-129.707,3.52426,-133.918,-1.35577
block_1,7289,9,11540,1,-133.811,-129.509,3.56232,-133.811,-1.35577
block_1,7290,9,11541,1,-154.561,-149.702,3.29345,-154.561,-1.42096
block_1,7291,9,11542,1,-154.438,-149.474,3.32904,-154.438,-1.42097
block_1,7292,9,11543,1,-133.703,-129.309,3.60039,-133.703,-1.35577
block_1,7293,9,11544,1,-133.594,-129.107,3.63845,-133.594,-1.35577
block_1,7294,9,11545,1,-154.314,-149.243,3.36462,-154.314,-1.42097
block_1,7295,9,11546,1,-154.188,-149.01,3.4002,-154.188,-1.42097
block_1,7296,9,11547,1,-176.768,-172.59,2.63675,-176.768,-1.48141
block_1,7297,9,11548,1,-176.646,-172.365,2.66949,-176.646,-1.48141
block_1,7298,9,11549,1,-197.606,-192.937,2.37826,-197.606,-1.53654
block_1,7299,9,11550,1,-197.47,-192.685,2.40781,-197.47,-1.53654
block_1,7300,9,11551,1,-176.523,-172.137,2.70223,-176.523,-1.48142
block_1,7301,9,11552,1,-176.399,-171.906,2.73497,-176.399,-1.48142
block_1,7302,9,11553,1,-197.333,-192.43,2.43736,-197.333,-1.53654
block_1,7303,9,11554,1,-197.193,-192.171,2.4669,-197.193,-1.53655
block_1,7304,9,11555,1,-218.451,-213.29,2.09102,-218.451,-1.58569
block_1,7305,9,11556,1,-218.301,-213.011,2.11703,-218.301,-1.58569
block_1,7306,9,11557,1,-239.304,-233.65,1.77505,-239.304,-1.62823
block_1,7307,9,11558,1,-239.139,-233.345,1.79715,-239.139,-1.62823
block_1,7308,9,11559,1,-218.149,-212.729,2.14303,-218.149,-1.58569
block_1,7309,9,11560,1,-217.995,-212.444,2.16903,-217.995,-1.5857
block_1,7310,9,11561,1,-238.972,-233.036,1.81925,-238.972,-1.62823
block_1,7311,9,11562,1,-238.804,-232.724,1.84135,-238.804,-1.62824
block_1,7312,9,11563,1,-176.272,-171.672,2.76771,-176.272,-1.48142
block_1,7313,9,11564,1,-176.145,-171.435,2.80045,-176.145,-1.48142
block_1,7314,9,11565,1,-197.052,-191.91,2.49645,-197.052,-1.53655
block_1,7315,9,11566,1,-196.91,-191.646,2.526,-196.91,-1.53655
block_1,7316,9,11567,1,-176.016,-171.196,2.8332,-176.016,-1.48143
block_1,7317,9,11568,1,-175.885,-170.954,2.86594,-175.885,-1.48143
block_1,7318,9,11569,1,-196.765,-191.378,2.55555,-196.765,-1.53655
block_1,7319,9,11570,1,-196.62,-191.108,2.5851,-196.62,-1.53656
block_1,7320,9,11571,1,-217.839,-212.155,2.19503,-217.839,-1.5857
block_1,7321,9,11572,1,-217.681,-211.863,2.22103,-217.681,-1.5857
block_1,7322,9,11573,1,-238.633,-232.407,1.86345,-238.633,-1.62824
block_1,7323,9,11574,1,-238.461,-232.087,1.88555,-238.461,-1.62824
block_1,7324,9,11575,1,-217.522,-211.567,2.24703,-217.522,-1.5857
block_1,7325,9,11576,1,-217.361,-211.268,2.27303,-217.361,-1.58571
block_1,7326,9,11577,1,-238.286,-231.763,1.90764,-238.286,-1.62824
block_1,7327,9,11578,1,-238.109,-231.436,1.92974,-238.109,-1.62825
block_1,7328,9,11579,1,-260.164,-254.019,1.43033,-260.164,-1.66353
block_1,7329,9,11580,1,-259.985,-253.687,1.44817,-259.985,-1.66353
block_1,7330,9,11581,1,-281.034,-274.396,1.05687,-281.034,-1.69096
block_1,7331,9,11582,1,-280.841,-274.038,1.0701,-280.841,-1.69097
block_1,7332,9,11583,1,-259.804,-253.351,1.46602,-259.804,-1.66354
block_1,7333,9,11584,1,-259.621,-253.012,1.48386,-259.621,-1.66354
block_1,7334,9,11585,1,-280.645,-273.675,1.08334,-280.645,-1.69097
block_1,7335,9,11586,1,-280.447,-273.308,1.09657,-280.447,-1.69097
block_1,7336,9,11587,1,-301.913,-294.783,0.654668,-301.913,-1.7099
block_1,7337,9,11588,1,-301.705,-294.398,0.662935,-301.705,-1.7099
block_1,7338,9,11589,1,-322.802,-315.18,0.223724,-322.802,-1.71971
block_1,7339,9,11590,1,-322.58,-314.769,0.22667,-322.58,-1.71971
block_1,7340,9,11591,1,-301.495,-294.009,0.6712,-301.495,-1.7099
block_1,7341,9,11592,1,-301.283,-293.615,0.679463,-301.283,-1.70991
block_1,7342,9,11593,1,-322.356,-314.353,0.229613,-322.356,-1.71971
block_1,7343,9,11594,1,-322.128,-313.931,0.232554,-322.128,-1.71972
block_1,7344,9,11595,1,-259.435,-252.668,1.5017,-259.435,-1.66354
block_1,7345,9,11596,1,-259.248,-252.32,1.51954,-259.248,-1.66354
block_1,7346,9,11597,1,-280.247,-272.937,1.10979,-280.247,-1.69097
block_1,7347,9,11598,1,-280.044,-272.561,1.12302,-280.044,-1.69098
block_1,7348,9,11599,1,-259.058,-251.968,1.53738,-259.058,-1.66355
block_1,7349,9,11600,1,-258.866,-251.612,1.55522,-258.866,-1.66355
block_1,7350,9,11601,1,-279.839,-272.181,1.13625,-279.839,-1.69098
block_1,7351,9,11602,1,-279.631,-271.797,1.14947,-279.631,-1.69098
block_1,7352,9,11603,1,-301.067,-293.216,0.687725,-301.067,-1.70991
block_1,7353,9,11604,1,-300.85,-292.812,0.695985,-300.85,-1.70991
block_1,7354,9,11605,1,-321.898,-313.505,0.235494,-321.898,-1.71972
block_1,7355,9,11606,1,-321.666,-313.073,0.238431,-321.666,-1.71972
block_1,7356,9,11607,1,-300.629,-292.404,0.704243,-300.629,-1.70991
block_1,7357,9,11608,1,-300.407,-291.991,0.712501,-300.407,-1.70992
block_1,7358,9,11609,1,-321.43,-312.637,0.241366,-321.43,-1.71972
block_1,7359,9,11610,1,-321.192,-312.195,0.2443,-321.192,-1.71972
block_1,7360,9,11611,1,-175.753,-170.709,2.89868,-175.753,-1.48143
block_1,7361,9,11612,1,-175.62,-170.462,2.93142,-175.62,-1.48143
block_1,7362,9,11613,1,-196.472,-190.834,2.61465,-196.472,-1.53656
block_1,7363,9,11614,1,-196.323,-190.557,2.6442,-196.323,-1.53656
block_1,7364,9,11615,1,-175.485,-170.211,2.96416,-175.485,-1.48144
block_1,7365,9,11616,1,-175.348,-169.958,2.99691,-175.348,-1.48144
block_1,7366,9,11617,1,-196.172,-190.277,2.67374,-196.172,-1.53656
block_1,7367,9,11618,1,-196.019,-189.994,2.70329,-196.019,-1.53657
block_1,7368,9,11619,1,-217.197,-210.966,2.29903,-217.197,-1.58571
block_1,7369,9,11620,1,-217.032,-210.66,2.32503,-217.032,-1.58571
block_1,7370,9,11621,1,-237.93,-231.105,1.95184,-237.93,-1.62825
block_1,7371,9,11622,1,-237.75,-230.769,1.97393,-237.75,-1.62825
block_1,7372,9,11623,1,-216.866,-210.35,2.35103,-216.866,-1.58571
block_1,7373,9,11624,1,-216.697,-210.037,2.37703,-216.697,-1.58572
block_1,7374,9,11625,1,-237.567,-230.431,1.99603,-237.567,-1.62825
block_1,7375,9,11626,1,-237.382,-230.088,2.01812,-237.382,-1.62826
block_1,7376,9,11627,1,-175.21,-169.702,3.02965,-175.21,-1.48144
block_1,7377,9,11628,1,-175.07,-169.443,3.06239,-175.07,-1.48144
block_1,7378,9,11629,1,-195.865,-189.708,2.73284,-195.865,-1.53657
block_1,7379,9,11630,1,-195.709,-189.419,2.76239,-195.709,-1.53657
block_1,7380,9,11631,1,-174.929,-169.182,3.09513,-174.929,-1.48145
block_1,7381,9,11632,1,-174.787,-168.918,3.12788,-174.787,-1.48145
block_1,7382,9,11633,1,-195.551,-189.127,2.79194,-195.551,-1.53657
block_1,7383,9,11634,1,-195.392,-188.832,2.82149,-195.392,-1.53658
block_1,7384,9,11635,1,-216.526,-209.721,2.40303,-216.526,-1.58572
block_1,7385,9,11636,1,-216.354,-209.402,2.42903,-216.354,-1.58572
block_1,7386,9,11637,1,-237.195,-229.742,2.04022,-237.195,-1.62826
block_1,7387,9,11638,1,-237.007,-229.392,2.06231,-237.007,-1.62826
block_1,7388,9,11639,1,-216.18,-209.079,2.45503,-216.18,-1.58572
block_1,7389,9,11640,1,-216.004,-208.752,2.48103,-216.004,-1.58573
block_1,7390,9,11641,1,-236.816,-229.038,2.08441,-236.816,-1.62826
block_1,7391,9,11642,1,-236.623,-228.68,2.1065,-236.623,-1.62827
block_1,7392,9,11643,1,-258.672,-251.252,1.57306,-258.672,-1.66355
block_1,7393,9,11644,1,-258.475,-250.887,1.5909,-258.475,-1.66355
block_1,7394,9,11645,1,-279.422,-271.408,1.1627,-279.422,-1.69098
block_1,7395,9,11646,1,-279.209,-271.014,1.17592,-279.209,-1.69099
block_1,7396,9,11647,1,-258.276,-250.519,1.60873,-258.276,-1.66356
block_1,7397,9,11648,1,-258.076,-250.147,1.62657,-258.076,-1.66356
block_1,7398,9,11649,1,-278.995,-270.616,1.18914,-278.995,-1.69099
block_1,7399,9,11650,1,-278.778,-270.214,1.20237,-278.778,-1.69099
block_1,7400,9,11651,1,-300.181,-291.573,0.720756,-300.181,-1.70992
block_1,7401,9,11652,1,-299.953,-291.15,0.729011,-299.953,-1.70992
block_1,7402,9,11653,1,-320.951,-311.749,0.247232,-320.951,-1.71973
block_1,7403,9,11654,1,-320.707,-311.297,0.250162,-320.707,-1.71973
block_1,7404,9,11655,1,-299.723,-290.723,0.737264,-299.723,-1.70992
block_1,7405,9,11656,1,-299.49,-290.291,0.745515,-299.49,-1.70993
block_1,7406,9,11657,1,-320.461,-310.84,0.253091,-320.461,-1.71973
block_1,7407,9,11658,1,-320.212,-310.379,0.256018,-320.212,-1.71973
block_1,7408,9,11659,1,-257.873,-249.77,1.6444,-257.873,-1.66356
block_1,7409,9,11660,1,-257.667,-249.39,1.66224,-257.667,-1.66356
block_1,7410,9,11661,1,-278.559,-269.808,1.21559,-278.559,-1.69099
block_1,7411,9,11662,1,-278.337,-269.397,1.22881,-278.337,-1.691
block_1,7412,9,11663,1,-257.46,-249.005,1.68007,-257.46,-1.66357
block_1,7413,9,11664,1,-257.25,-248.616,1.69791,-257.25,-1.66357
block_1,7414,9,11665,1,-278.113,-268.981,1.24202,-278.113,-1.691
block_1,7415,9,11666,1,-277.887,-268.561,1.25524,-277.887,-1.691
block_1,7416,9,11667,1,-299.254,-289.855,0.753766,-299.254,-1.70993
block_1,7417,9,11668,1,-299.016,-289.413,0.762015,-299.016,-1.70993
block_1,7418,9,11669,1,-319.96,-309.912,0.258943,-319.96,-1.71974
block_1,7419,9,11670,1,-319.706,-309.44,0.261867,-319.706,-1.71974
block_1,7420,9,11671,1,-298.776,-288.967,0.770263,-298.776,-1.70993
block_1,7421,9,11672,1,-298.532,-288.516,0.77851,-298.532,-1.70994
block_1,7422,9,11673,1,-319.449,-308.963,0.26479,-319.449,-1.71974
block_1,7423,9,11674,1,-319.189,-308.481,0.267711,-319.189,-1.71974
block_1,7424,9,11675,1,-11.8312,-9.74767,4.39806,-10.0958,-0.900752
block_1,7425,9,11676,1,-11.8457,-9.73199,4.44357,-10.0873,-0.900754
block_1,7426,9,11677,1,-30.8121,-29.6019,4.36386,-30.6555,-0.98104
block_1,7427,9,11678,1,-30.7873,-29.5544,4.40902,-30.6299,-0.981043
block_1,7428,9,11679,1,-11.8603,-9.71616,4.48909,-10.0788,-0.900756
block_1,7429,9,11680,1,-11.8749,-9.70016,4.5346,-10.0701,-0.900758
block_1,7430,9,11681,1,-30.7622,-29.5065,4.45418,-30.6041,-0.981045
block_1,7431,9,11682,1,-30.7369,-29.4581,4.49935,-30.578,-0.981047
block_1,7432,9,11683,1,-51.2163,-49.4571,4.29524,-51.2163,-1.06039
block_1,7433,9,11684,1,-51.1736,-49.3779,4.33969,-51.1736,-1.06039
block_1,7434,9,11685,1,-71.7788,-69.3142,4.1922,-71.7788,-1.13817
block_1,7435,9,11686,1,-71.719,-69.2032,4.23559,-71.719,-1.13817
block_1,7436,9,11687,1,-51.1304,-49.2979,4.38415,-51.1304,-1.06039
block_1,7437,9,11688,1,-51.0868,-49.2171,4.4286,-51.0868,-1.0604
block_1,7438,9,11689,1,-71.6586,-69.0911,4.27898,-71.6586,-1.13817
block_1,7439,9,11690,1,-71.5975,-68.9778,4.32237,-71.5975,-1.13817
block_1,7440,9,11691,1,-11.8895,-9.684,4.58012,-10.0614,-0.90076
block_1,7441,9,11692,1,-11.9041,-9.66768,4.62564,-10.0526,-0.900762
block_1,7442,9,11693,1,-30.7113,-29.4092,4.54451,-30.5516,-0.981049
block_1,7443,9,11694,1,-30.6854,-29.3598,4.58968,-30.525,-0.981051
block_1,7444,9,11695,1,-11.9188,-9.6512,4.67116,-10.0438,-0.900764
block_1,7445,9,11696,1,-11.9335,-9.63456,4.71668,-10.0348,-0.900766
block_1,7446,9,11697,1,-30.6593,-29.3099,4.63484,-30.4981,-0.981053
block_1,7447,9,11698,1,-30.6329,-29.2596,4.68001,-30.4709,-0.981056
block_1,7448,9,11699,1,-51.0428,-49.1354,4.47306,-51.0428,-1.0604
block_1,7449,9,11700,1,-50.9984,-49.053,4.51751,-50.9984,-1.0604
block_1,7450,9,11701,1,-71.5358,-68.8635,4.36576,-71.5358,-1.13818
block_1,7451,9,11702,1,-71.4735,-68.7479,4.40915,-71.4735,-1.13818
block_1,7452,9,11703,1,-50.9535,-48.9697,4.56197,-50.9535,-1.0604
block_1,7453,9,11704,1,-50.9081,-48.8856,4.60643,-50.9081,-1.0604
block_1,7454,9,11705,1,-71.4106,-68.6312,4.45254,-71.4106,-1.13818
block_1,7455,9,11706,1,-71.3471,-68.5134,4.49594,-71.3471,-1.13818
block_1,7456,9,11707,1,-92.3439,-89.1737,4.05473,-92.3439,-1.21374
block_1,7457,9,11708,1,-92.2669,-89.031,4.0967,-92.2669,-1.21375
block_1,7458,9,11709,1,-112.912,-109.036,3.88284,-112.912,-1.28649
block_1,7459,9,11710,1,-112.818,-108.862,3.92303,-112.818,-1.28649
block_1,7460,9,11711,1,-92.1892,-88.8867,4.13867,-92.1892,-1.21375
block_1,7461,9,11712,1,-92.1106,-88.7411,4.18064,-92.1106,-1.21375
block_1,7462,9,11713,1,-112.723,-108.686,3.96323,-112.723,-1.2865
block_1,7463,9,11714,1,-112.627,-108.507,4.00343,-112.627,-1.2865
block_1,7464,9,11715,1,-133.484,-128.903,3.67652,-133.484,-1.35578
block_1,7465,9,11716,1,-133.373,-128.697,3.71459,-133.373,-1.35578
block_1,7466,9,11717,1,-154.061,-148.774,3.43578,-154.061,-1.42097
block_1,7467,9,11718,1,-153.933,-148.536,3.47137,-153.933,-1.42098
block_1,7468,9,11719,1,-133.261,-128.488,3.75266,-133.261,-1.35578
block_1,7469,9,11720,1,-133.147,-128.278,3.79073,-133.147,-1.35579
block_1,7470,9,11721,1,-153.803,-148.296,3.50695,-153.803,-1.42098
block_1,7471,9,11722,1,-153.672,-148.053,3.54253,-153.672,-1.42098
block_1,7472,9,11723,1,-92.0313,-88.5939,4.22262,-92.0313,-1.21375
block_1,7473,9,11724,1,-91.9512,-88.4453,4.26459,-91.9512,-1.21376
block_1,7474,9,11725,1,-112.53,-108.328,4.04363,-112.53,-1.2865
block_1,7475,9,11726,1,-112.432,-108.146,4.08383,-112.432,-1.2865
block_1,7476,9,11727,1,-91.8703,-88.2953,4.30656,-91.8703,-1.21376
block_1,7477,9,11728,1,-91.7886,-88.1437,4.34854,-91.7886,-1.21376
block_1,7478,9,11729,1,-112.333,-107.962,4.12403,-112.333,-1.28651
block_1,7479,9,11730,1,-112.233,-107.777,4.16423,-112.233,-1.28651
block_1,7480,9,11731,1,-133.033,-128.065,3.82879,-133.033,-1.35579
block_1,7481,9,11732,1,-132.917,-127.85,3.86686,-132.917,-1.35579
block_1,7482,9,11733,1,-153.54,-147.807,3.57812,-153.54,-1.42099
block_1,7483,9,11734,1,-153.406,-147.559,3.6137,-153.406,-1.42099
block_1,7484,9,11735,1,-132.8,-127.634,3.90493,-132.8,-1.35579
block_1,7485,9,11736,1,-132.682,-127.415,3.943,-132.682,-1.3558
block_1,7486,9,11737,1,-153.271,-147.309,3.64929,-153.271,-1.42099
block_1,7487,9,11738,1,-153.135,-147.056,3.68487,-153.135,-1.42099
block_1,7488,9,11739,1,-11.95,-9.61776,4.7622,-10.0257,-0.900768
block_1,7489,9,11740,1,-11.9673,-9.6008,4.80772,-10.0166,-0.90077
block_1,7490,9,11741,1,-30.6062,-29.2087,4.72517,-30.4435,-0.981058
block_1,7491,9,11742,1,-30.5793,-29.1574,4.77034,-30.4158,-0.98106
block_1,7492,9,11743,1,-11.9847,-9.58367,4.85324,-10.0074,-0.900772
block_1,7493,9,11744,1,-12.0022,-9.56638,4.89876,-9.99803,-0.900774
block_1,7494,9,11745,1,-30.5521,-29.1055,4.81551,-30.3879,-0.981062
block_1,7495,9,11746,1,-30.5246,-29.0532,4.86068,-30.3597,-0.981065
block_1,7496,9,11747,1,-50.8624,-48.8007,4.65089,-50.8624,-1.06041
block_1,7497,9,11748,1,-50.8162,-48.715,4.69534,-50.8162,-1.06041
block_1,7498,9,11749,1,-71.283,-68.3945,4.53933,-71.283,-1.13819
block_1,7499,9,11750,1,-71.2183,-68.2744,4.58273,-71.2183,-1.13819
block_1,7500,9,11751,1,-50.7695,-48.6285,4.7398,-50.7695,-1.06041
block_1,7501,9,11752,1,-50.7224,-48.5411,4.78426,-50.7224,-1.06041
block_1,7502,9,11753,1,-71.1529,-68.1531,4.62612,-71.1529,-1.13819
block_1,7503,9,11754,1,-71.0869,-68.0308,4.66952,-71.0869,-1.13819
block_1,7504,9,11755,1,-12.0198,-9.54894,4.94428,-9.98863,-0.900777
block_1,7505,9,11756,1,-12.0374,-9.53133,4.9898,-9.97914,-0.900779
block_1,7506,9,11757,1,-30.4969,-29.0004,4.90585,-30.3312,-0.981067
block_1,7507,9,11758,1,-30.4688,-28.9471,4.95102,-30.3025,-0.981069
block_1,7508,9,11759,1,-12.0552,-9.51356,5.03533,-9.96956,-0.900781
block_1,7509,9,11760,1,-12.073,-9.49563,5.08085,-9.9599,-0.900783
block_1,7510,9,11761,1,-30.4406,-28.8933,4.99619,-30.2735,-0.981072
block_1,7511,9,11762,1,-30.412,-28.8391,5.04136,-30.2443,-0.981074
block_1,7512,9,11763,1,-50.6749,-48.4529,4.82872,-50.6749,-1.06042
block_1,7513,9,11764,1,-50.627,-48.364,4.87318,-50.627,-1.06042
block_1,7514,9,11765,1,-71.0204,-67.9072,4.71291,-71.0204,-1.1382
block_1,7515,9,11766,1,-70.9532,-67.7826,4.75631,-70.9532,-1.1382
block_1,7516,9,11767,1,-50.5786,-48.2742,4.91765,-50.5786,-1.06042
block_1,7517,9,11768,1,-50.5297,-48.1836,4.96211,-50.5297,-1.06042
block_1,7518,9,11769,1,-70.8854,-67.6568,4.79971,-70.8854,-1.1382
block_1,7519,9,11770,1,-70.8169,-67.5298,4.84311,-70.8169,-1.1382
block_1,7520,9,11771,1,-91.7061,-87.9907,4.39051,-91.7061,-1.21376
block_1,7521,9,11772,1,-91.6228,-87.8362,4.43249,-91.6228,-1.21377
block_1,7522,9,11773,1,-112.132,-107.59,4.20443,-112.132,-1.28651
block_1,7523,9,11774,1,-112.031,-107.401,4.24463,-112.031,-1.28651
block_1,7524,9,11775,1,-91.5388,-87.6803,4.47446,-91.5388,-1.21377
block_1,7525,9,11776,1,-91.4539,-87.5229,4.51644,-91.4539,-1.21377
block_1,7526,9,11777,1,-111.928,-107.211,4.28483,-111.928,-1.28652
block_1,7527,9,11778,1,-111.824,-107.018,4.32503,-111.824,-1.28652
block_1,7528,9,11779,1,-132.563,-127.193,3.98107,-132.563,-1.3558
block_1,7529,9,11780,1,-132.442,-126.97,4.01914,-132.442,-1.3558
block_1,7530,9,11781,1,-152.997,-146.801,3.72046,-152.997,-1.421
block_1,7531,9,11782,1,-152.859,-146.544,3.75604,-152.859,-1.421
block_1,7532,9,11783,1,-132.321,-126.745,4.05722,-132.321,-1.35581
block_1,7533,9,11784,1,-132.198,-126.517,4.09529,-132.198,-1.35581
block_1,7534,9,11785,1,-152.718,-146.284,3.79163,-152.718,-1.421
block_1,7535,9,11786,1,-152.577,-146.021,3.82721,-152.577,-1.42101
block_1,7536,9,11787,1,-91.3683,-87.364,4.55842,-91.3683,-1.21377
block_1,7537,9,11788,1,-91.2818,-87.2037,4.60039,-91.2818,-1.21378
block_1,7538,9,11789,1,-111.719,-106.824,4.36523,-111.719,-1.28652
block_1,7539,9,11790,1,-111.614,-106.628,4.40543,-111.614,-1.28653
block_1,7540,9,11791,1,-91.1946,-87.0419,4.64237,-91.1946,-1.21378
block_1,7541,9,11792,1,-91.1066,-86.8786,4.68435,-91.1066,-1.21378
block_1,7542,9,11793,1,-111.507,-106.43,4.44564,-111.507,-1.28653
block_1,7543,9,11794,1,-111.399,-106.23,4.48584,-111.399,-1.28653
block_1,7544,9,11795,1,-132.074,-126.288,4.13336,-132.074,-1.35581
block_1,7545,9,11796,1,-131.949,-126.056,4.17143,-131.949,-1.35581
block_1,7546,9,11797,1,-152.434,-145.756,3.8628,-152.434,-1.42101
block_1,7547,9,11798,1,-152.29,-145.489,3.89838,-152.29,-1.42101
block_1,7548,9,11799,1,-131.823,-125.822,4.2095,-131.823,-1.35582
block_1,7549,9,11800,1,-131.696,-125.586,4.24758,-131.696,-1.35582
block_1,7550,9,11801,1,-152.144,-145.219,3.93397,-152.144,-1.42102
block_1,7551,9,11802,1,-151.998,-144.947,3.96956,-151.998,-1.42102
block_1,7552,9,11803,1,-174.643,-168.651,3.16062,-174.643,-1.48145
block_1,7553,9,11804,1,-174.498,-168.381,3.19336,-174.498,-1.48145
block_1,7554,9,11805,1,-195.231,-188.533,2.85104,-195.231,-1.53658
block_1,7555,9,11806,1,-195.069,-188.231,2.88058,-195.069,-1.53658
block_1,7556,9,11807,1,-174.351,-168.108,3.22611,-174.351,-1.48146
block_1,7557,9,11808,1,-174.202,-167.833,3.25885,-174.202,-1.48146
block_1,7558,9,11809,1,-194.904,-187.927,2.91013,-194.904,-1.53659
block_1,7559,9,11810,1,-194.738,-187.619,2.93968,-194.738,-1.53659
block_1,7560,9,11811,1,-215.826,-208.422,2.50703,-215.826,-1.58573
block_1,7561,9,11812,1,-215.646,-208.089,2.53302,-215.646,-1.58573
block_1,7562,9,11813,1,-236.428,-228.319,2.12859,-236.428,-1.62827
block_1,7563,9,11814,1,-236.231,-227.954,2.15069,-236.231,-1.62827
block_1,7564,9,11815,1,-215.465,-207.752,2.55902,-215.465,-1.58574
block_1,7565,9,11816,1,-215.281,-207.412,2.58502,-215.281,-1.58574
block_1,7566,9,11817,1,-236.032,-227.585,2.17278,-236.032,-1.62828
block_1,7567,9,11818,1,-235.832,-227.212,2.19487,-235.832,-1.62828
block_1,7568,9,11819,1,-174.052,-167.555,3.2916,-174.052,-1.48146
block_1,7569,9,11820,1,-173.901,-167.274,3.32434,-173.901,-1.48147
block_1,7570,9,11821,1,-194.571,-187.308,2.96923,-194.571,-1.53659
block_1,7571,9,11822,1,-194.401,-186.994,2.99878,-194.401,-1.5366
block_1,7572,9,11823,1,-173.748,-166.99,3.35708,-173.748,-1.48147
block_1,7573,9,11824,1,-173.593,-166.704,3.38983,-173.593,-1.48147
block_1,7574,9,11825,1,-194.231,-186.677,3.02833,-194.231,-1.5366
block_1,7575,9,11826,1,-194.058,-186.357,3.05787,-194.058,-1.5366
block_1,7576,9,11827,1,-215.096,-207.068,2.61102,-215.096,-1.58574
block_1,7577,9,11828,1,-214.909,-206.721,2.63702,-214.909,-1.58574
block_1,7578,9,11829,1,-235.629,-226.836,2.21696,-235.629,-1.62828
block_1,7579,9,11830,1,-235.424,-226.456,2.23905,-235.424,-1.62829
block_1,7580,9,11831,1,-214.72,-206.371,2.66301,-214.72,-1.58575
block_1,7581,9,11832,1,-214.529,-206.017,2.68901,-214.529,-1.58575
block_1,7582,9,11833,1,-235.217,-226.072,2.26114,-235.217,-1.62829
block_1,7583,9,11834,1,-235.008,-225.684,2.28324,-235.008,-1.62829
block_1,7584,9,11835,1,-257.039,-248.224,1.71574,-257.039,-1.66357
block_1,7585,9,11836,1,-256.825,-247.827,1.73357,-256.825,-1.66357
block_1,7586,9,11837,1,-277.658,-268.137,1.26846,-277.658,-1.69101
block_1,7587,9,11838,1,-277.427,-267.709,1.28167,-277.427,-1.69101
block_1,7588,9,11839,1,-256.608,-247.426,1.7514,-256.608,-1.66358
block_1,7589,9,11840,1,-256.39,-247.021,1.76923,-256.39,-1.66358
block_1,7590,9,11841,1,-277.193,-267.276,1.29489,-277.193,-1.69101
block_1,7591,9,11842,1,-276.957,-266.838,1.3081,-276.957,-1.69101
block_1,7592,9,11843,1,-298.287,-288.06,0.786756,-298.287,-1.70994
block_1,7593,9,11844,1,-298.039,-287.6,0.795001,-298.039,-1.70994
block_1,7594,9,11845,1,-318.926,-307.994,0.27063,-318.926,-1.71975
block_1,7595,9,11846,1,-318.661,-307.502,0.273549,-318.661,-1.71975
block_1,7596,9,11847,1,-297.788,-287.135,0.803245,-297.788,-1.70995
block_1,7597,9,11848,1,-297.534,-286.665,0.811487,-297.534,-1.70995
block_1,7598,9,11849,1,-318.392,-307.004,0.276466,-318.392,-1.71975
block_1,7599,9,11850,1,-318.122,-306.502,0.279382,-318.122,-1.71975
block_1,7600,9,11851,1,-256.17,-246.612,1.78706,-256.17,-1.66358
block_1,7601,9,11852,1,-255.947,-246.199,1.80489,-255.947,-1.66359
block_1,7602,9,11853,1,-276.719,-266.396,1.32132,-276.719,-1.69102
block_1,7603,9,11854,1,-276.479,-265.95,1.33453,-276.479,-1.69102
block_1,7604,9,11855,1,-255.722,-245.781,1.82272,-255.722,-1.66359
block_1,7605,9,11856,1,-255.495,-245.36,1.84055,-255.495,-1.66359
block_1,7606,9,11857,1,-276.236,-265.499,1.34774,-276.236,-1.69102
block_1,7607,9,11858,1,-275.99,-265.044,1.36095,-275.99,-1.69103
block_1,7608,9,11859,1,-297.279,-286.19,0.819729,-297.279,-1.70995
block_1,7609,9,11860,1,-297.02,-285.711,0.82797,-297.02,-1.70995
block_1,7610,9,11861,1,-317.848,-305.995,0.282296,-317.848,-1.71976
block_1,7611,9,11862,1,-317.572,-305.482,0.285209,-317.572,-1.71976
block_1,7612,9,11863,1,-296.759,-285.227,0.83621,-296.759,-1.70996
block_1,7613,9,11864,1,-296.496,-284.738,0.844449,-296.496,-1.70996
block_1,7614,9,11865,1,-317.293,-304.965,0.288122,-317.293,-1.71976
block_1,7615,9,11866,1,-317.011,-304.442,0.291032,-317.011,-1.71976
block_1,7616,9,11867,1,-173.437,-166.415,3.42257,-173.437,-1.48148
block_1,7617,9,11868,1,-173.28,-166.123,3.45532,-173.28,-1.48148
block_1,7618,9,11869,1,-193.884,-186.034,3.08742,-193.884,-1.5366
block_1,7619,9,11870,1,-193.708,-185.707,3.11697,-193.708,-1.53661
block_1,7620,9,11871,1,-173.121,-165.828,3.48806,-173.121,-1.48148
block_1,7621,9,11872,1,-172.961,-165.53,3.52081,-172.961,-1.48148
block_1,7622,9,11873,1,-193.53,-185.378,3.14652,-193.53,-1.53661
block_1,7623,9,11874,1,-193.351,-185.045,3.17607,-193.351,-1.53661
block_1,7624,9,11875,1,-214.337,-205.66,2.71501,-214.337,-1.58575
block_1,7625,9,11876,1,-214.142,-205.299,2.741,-214.142,-1.58576
block_1,7626,9,11877,1,-234.797,-225.293,2.30533,-234.797,-1.62829
block_1,7627,9,11878,1,-234.584,-224.898,2.32742,-234.584,-1.6283
block_1,7628,9,11879,1,-213.946,-204.935,2.767,-213.946,-1.58576
block_1,7629,9,11880,1,-213.748,-204.567,2.793,-213.748,-1.58576
block_1,7630,9,11881,1,-234.369,-224.499,2.3495,-234.369,-1.6283
block_1,7631,9,11882,1,-234.152,-224.096,2.37159,-234.152,-1.6283
block_1,7632,9,11883,1,-172.799,-165.23,3.55355,-172.799,-1.48149
block_1,7633,9,11884,1,-172.636,-164.927,3.5863,-172.636,-1.48149
block_1,7634,9,11885,1,-193.17,-184.71,3.20562,-193.17,-1.53662
block_1,7635,9,11886,1,-192.987,-184.371,3.23516,-192.987,-1.53662
block_1,7636,9,11887,1,-172.471,-164.621,3.61904,-172.471,-1.48149
block_1,7637,9,11888,1,-172.304,-164.312,3.65179,-172.304,-1.4815
block_1,7638,9,11889,1,-192.803,-184.029,3.26471,-192.803,-1.53662
block_1,7639,9,11890,1,-192.617,-183.684,3.29426,-192.617,-1.53663
block_1,7640,9,11891,1,-213.548,-204.196,2.81899,-213.548,-1.58577
block_1,7641,9,11892,1,-213.346,-203.822,2.84499,-213.346,-1.58577
block_1,7642,9,11893,1,-233.933,-223.69,2.39368,-233.933,-1.62831
block_1,7643,9,11894,1,-233.712,-223.28,2.41577,-233.712,-1.62831
block_1,7644,9,11895,1,-213.142,-203.444,2.87099,-213.142,-1.58577
block_1,7645,9,11896,1,-212.937,-203.063,2.89698,-212.937,-1.58578
block_1,7646,9,11897,1,-233.489,-222.866,2.43786,-233.489,-1.62831
block_1,7647,9,11898,1,-233.263,-222.448,2.45995,-233.263,-1.62832
block_1,7648,9,11899,1,-255.265,-244.935,1.85838,-255.265,-1.6636
block_1,7649,9,11900,1,-255.034,-244.505,1.87621,-255.034,-1.6636
block_1,7650,9,11901,1,-275.743,-264.585,1.37417,-275.743,-1.69103
block_1,7651,9,11902,1,-275.493,-264.121,1.38738,-275.493,-1.69103
block_1,7652,9,11903,1,-254.8,-244.071,1.89403,-254.8,-1.6636
block_1,7653,9,11904,1,-254.564,-243.634,1.91186,-254.564,-1.6636
block_1,7654,9,11905,1,-275.24,-263.653,1.40058,-275.24,-1.69103
block_1,7655,9,11906,1,-274.985,-263.18,1.41379,-274.985,-1.69104
block_1,7656,9,11907,1,-296.23,-284.245,0.852687,-296.23,-1.70996
block_1,7657,9,11908,1,-295.961,-283.746,0.860924,-295.961,-1.70996
block_1,7658,9,11909,1,-316.727,-303.915,0.293942,-316.727,-1.71977
block_1,7659,9,11910,1,-316.44,-303.382,0.296851,-316.44,-1.71977
block_1,7660,9,11911,1,-295.69,-283.244,0.86916,-295.69,-1.70997
block_1,7661,9,11912,1,-295.416,-282.736,0.877395,-295.416,-1.70997
block_1,7662,9,11913,1,-316.15,-302.845,0.299759,-316.15,-1.71977
block_1,7663,9,11914,1,-315.857,-302.302,0.302665,-315.857,-1.71978
block_1,7664,9,11915,1,-254.326,-243.192,1.92969,-254.326,-1.66361
block_1,7665,9,11916,1,-254.086,-242.746,1.94751,-254.086,-1.66361
block_1,7666,9,11917,1,-274.728,-262.703,1.427,-274.728,-1.69104
block_1,7667,9,11918,1,-274.469,-262.221,1.44021,-274.469,-1.69104
block_1,7668,9,11919,1,-253.843,-242.296,1.96534,-253.843,-1.66361
block_1,7669,9,11920,1,-253.598,-241.842,1.98316,-253.598,-1.66362
block_1,7670,9,11921,1,-274.207,-261.736,1.45342,-274.207,-1.69105
block_1,7671,9,11922,1,-273.942,-261.245,1.46662,-273.942,-1.69105
block_1,7672,9,11923,1,-295.14,-282.223,0.88563,-295.14,-1.70997
block_1,7673,9,11924,1,-294.861,-281.706,0.893864,-294.861,-1.70998
block_1,7674,9,11925,1,-315.562,-301.754,0.305571,-315.562,-1.71978
block_1,7675,9,11926,1,-315.264,-301.201,0.308476,-315.264,-1.71978
block_1,7676,9,11927,1,-294.58,-281.184,0.902097,-294.58,-1.70998
block_1,7677,9,11928,1,-294.296,-280.658,0.910329,-294.296,-1.70998
block_1,7678,9,11929,1,-314.963,-300.643,0.311379,-314.963,-1.71978
block_1,7679,9,11930,1,-314.66,-300.08,0.314282,-314.66,-1.71979
block_1,7680,9,11931,1,-12.0909,-9.47753,5.12638,-9.95015,-0.900785
block_1,7681,9,11932,1,-12.1089,-9.45928,5.1719,-9.94031,-0.900788
block_1,7682,9,11933,1,-30.3832,-28.7843,5.08653,-30.2148,-0.981077
block_1,7683,9,11934,1,-30.3542,-28.7291,5.1317,-30.185,-0.981079
block_1,7684,9,11935,1,-12.1269,-9.44086,5.21743,-9.93039,-0.90079
block_1,7685,9,11936,1,-12.145,-9.42229,5.26295,-9.92037,-0.900792
block_1,7686,9,11937,1,-30.3248,-28.6733,5.17687,-30.155,-0.981082
block_1,7687,9,11938,1,-30.2952,-28.6171,5.22205,-30.1247,-0.981084
block_1,7688,9,11939,1,-50.4804,-48.0921,5.00657,-50.4804,-1.06043
block_1,7689,9,11940,1,-50.4307,-47.9999,5.05103,-50.4307,-1.06043
block_1,7690,9,11941,1,-70.7479,-67.4018,4.8865,-70.7479,-1.13821
block_1,7691,9,11942,1,-70.6782,-67.2725,4.9299,-70.6782,-1.13821
block_1,7692,9,11943,1,-50.3806,-47.9069,5.0955,-50.3806,-1.06043
block_1,7693,9,11944,1,-50.33,-47.813,5.13996,-50.33,-1.06043
block_1,7694,9,11945,1,-70.608,-67.1422,4.9733,-70.608,-1.13821
block_1,7695,9,11946,1,-70.5371,-67.0107,5.0167,-70.5371,-1.13822
block_1,7696,9,11947,1,-12.1632,-9.40355,5.30848,-9.91028,-0.900795
block_1,7697,9,11948,1,-12.1815,-9.38465,5.35401,-9.90009,-0.900797
block_1,7698,9,11949,1,-30.2654,-28.5604,5.26722,-30.0941,-0.981087
block_1,7699,9,11950,1,-30.2352,-28.5032,5.31239,-30.0633,-0.981089
block_1,7700,9,11951,1,-12.1998,-9.36559,5.39954,-9.88982,-0.900799
block_1,7701,9,11952,1,-12.2182,-9.34636,5.44507,-9.87946,-0.900802
block_1,7702,9,11953,1,-30.2048,-28.4455,5.35757,-30.0322,-0.981092
block_1,7703,9,11954,1,-30.1742,-28.3874,5.40274,-30.0008,-0.981094
block_1,7704,9,11955,1,-50.279,-47.7183,5.18443,-50.279,-1.06044
block_1,7705,9,11956,1,-50.2275,-47.6228,5.22889,-50.2275,-1.06044
block_1,7706,9,11957,1,-70.4656,-66.878,5.0601,-70.4656,-1.13822
block_1,7707,9,11958,1,-70.3935,-66.7442,5.1035,-70.3935,-1.13822
block_1,7708,9,11959,1,-50.1756,-47.5265,5.27336,-50.1756,-1.06044
block_1,7709,9,11960,1,-50.1233,-47.4294,5.31782,-50.1233,-1.06045
block_1,7710,9,11961,1,-70.3208,-66.6093,5.14691,-70.3208,-1.13822
block_1,7711,9,11962,1,-70.2475,-66.4732,5.19031,-70.2475,-1.13823
block_1,7712,9,11963,1,-91.0178,-86.7138,4.72633,-91.0178,-1.21379
block_1,7713,9,11964,1,-90.9282,-86.5476,4.76831,-90.9282,-1.21379
block_1,7714,9,11965,1,-111.291,-106.029,4.52604,-111.291,-1.28653
block_1,7715,9,11966,1,-111.181,-105.826,4.56625,-111.181,-1.28654
block_1,7716,9,11967,1,-90.8379,-86.3799,4.81029,-90.8379,-1.21379
block_1,7717,9,11968,1,-90.7467,-86.2108,4.85227,-90.7467,-1.21379
block_1,7718,9,11969,1,-111.071,-105.621,4.60645,-111.071,-1.28654
block_1,7719,9,11970,1,-110.959,-105.414,4.64666,-110.959,-1.28654
block_1,7720,9,11971,1,-131.568,-125.348,4.28565,-131.568,-1.35582
block_1,7721,9,11972,1,-131.438,-125.108,4.32372,-131.438,-1.35583
block_1,7722,9,11973,1,-151.85,-144.672,4.00515,-151.85,-1.42102
block_1,7723,9,11974,1,-151.7,-144.395,4.04073,-151.7,-1.42103
block_1,7724,9,11975,1,-131.308,-124.866,4.3618,-131.308,-1.35583
block_1,7725,9,11976,1,-131.176,-124.621,4.39987,-131.176,-1.35583
block_1,7726,9,11977,1,-151.549,-144.115,4.07632,-151.549,-1.42103
block_1,7727,9,11978,1,-151.397,-143.833,4.11191,-151.397,-1.42103
block_1,7728,9,11979,1,-90.6547,-86.0402,4.89425,-90.6547,-1.2138
block_1,7729,9,11980,1,-90.562,-85.8681,4.93623,-90.562,-1.2138
block_1,7730,9,11981,1,-110.847,-105.205,4.68686,-110.847,-1.28655
block_1,7731,9,11982,1,-110.734,-104.995,4.72707,-110.734,-1.28655
block_1,7732,9,11983,1,-90.4685,-85.6945,4.97821,-90.4685,-1.2138
block_1,7733,9,11984,1,-90.3741,-85.5195,5.02019,-90.3741,-1.21381
block_1,7734,9,11985,1,-110.619,-104.783,4.76727,-110.619,-1.28655
block_1,7735,9,11986,1,-110.504,-104.569,4.80748,-110.504,-1.28656
block_1,7736,9,11987,1,-131.043,-124.375,4.43794,-131.043,-1.35584
block_1,7737,9,11988,1,-130.909,-124.126,4.47602,-130.909,-1.35584
block_1,7738,9,11989,1,-151.244,-143.549,4.14749,-151.244,-1.42104
block_1,7739,9,11990,1,-151.089,-143.262,4.18308,-151.089,-1.42104
block_1,7740,9,11991,1,-130.774,-123.875,4.51409,-130.774,-1.35584
block_1,7741,9,11992,1,-130.638,-123.622,4.55217,-130.638,-1.35585
block_1,7742,9,11993,1,-150.933,-142.972,4.21867,-150.933,-1.42104
block_1,7743,9,11994,1,-150.776,-142.68,4.25426,-150.776,-1.42105
block_1,7744,9,11995,1,-12.2366,-9.32698,5.49059,-9.86902,-0.900804
block_1,7745,9,11996,1,-12.2552,-9.30743,5.53612,-9.85848,-0.900807
block_1,7746,9,11997,1,-30.1433,-28.3287,5.44792,-29.9692,-0.981097
block_1,7747,9,11998,1,-30.1121,-28.2695,5.4931,-29.9373,-0.981099
block_1,7748,9,11999,1,-12.2737,-9.28773,5.58165,-9.84787,-0.900809
block_1,7749,9,12000,1,-12.2924,-9.26786,5.62719,-9.83716,-0.900812
block_1,7750,9,12001,1,-30.0806,-28.2099,5.53827,-29.9052,-0.981102
block_1,7751,9,12002,1,-30.0489,-28.1498,5.58345,-29.8728,-0.981105
block_1,7752,9,12003,1,-50.0705,-47.3315,5.36229,-50.0705,-1.06045
block_1,7753,9,12004,1,-50.0173,-47.2327,5.40676,-50.0173,-1.06045
block_1,7754,9,12005,1,-70.1735,-66.336,5.23371,-70.1735,-1.13823
block_1,7755,9,12006,1,-70.0989,-66.1976,5.27711,-70.0989,-1.13823
block_1,7756,9,12007,1,-49.9636,-47.1331,5.45123,-49.9636,-1.06045
block_1,7757,9,12008,1,-49.9095,-47.0328,5.49569,-49.9095,-1.06046
block_1,7758,9,12009,1,-70.0238,-66.0581,5.32052,-70.0238,-1.13824
block_1,7759,9,12010,1,-69.948,-65.9175,5.36392,-69.948,-1.13824
block_1,7760,9,12011,1,-12.3111,-9.24783,5.67272,-9.82637,-0.900814
block_1,7761,9,12012,1,-12.3298,-9.22764,5.71825,-9.81549,-0.900817
block_1,7762,9,12013,1,-30.0169,-28.0892,5.62863,-29.8401,-0.981107
block_1,7763,9,12014,1,-29.9847,-28.0281,5.67381,-29.8072,-0.98111
block_1,7764,9,12015,1,-12.3486,-9.20729,5.76378,-9.80452,-0.900819
block_1,7765,9,12016,1,-12.3675,-9.18677,5.80931,-9.79347,-0.900822
block_1,7766,9,12017,1,-29.9522,-27.9665,5.71898,-29.774,-0.981113
block_1,7767,9,12018,1,-29.9194,-27.9044,5.76416,-29.7406,-0.981116
block_1,7768,9,12019,1,-49.855,-46.9316,5.54016,-49.855,-1.06046
block_1,7769,9,12020,1,-49.8,-46.8295,5.58463,-49.8,-1.06046
block_1,7770,9,12021,1,-69.8716,-65.7757,5.40732,-69.8716,-1.13824
block_1,7771,9,12022,1,-69.7946,-65.6328,5.45073,-69.7946,-1.13824
block_1,7772,9,12023,1,-49.7446,-46.7267,5.6291,-49.7446,-1.06047
block_1,7773,9,12024,1,-49.6887,-46.6231,5.67357,-49.6887,-1.06047
block_1,7774,9,12025,1,-69.7169,-65.4887,5.49413,-69.7169,-1.13825
block_1,7775,9,12026,1,-69.6387,-65.3435,5.53754,-69.6387,-1.13825
block_1,7776,9,12027,1,-90.279,-85.343,5.06217,-90.279,-1.21381
block_1,7777,9,12028,1,-90.1831,-85.165,5.10416,-90.1831,-1.21381
block_1,7778,9,12029,1,-110.388,-104.353,4.84769,-110.388,-1.28656
block_1,7779,9,12030,1,-110.27,-104.136,4.88789,-110.27,-1.28656
block_1,7780,9,12031,1,-90.0864,-84.9856,5.14614,-90.0864,-1.21382
block_1,7781,9,12032,1,-89.9889,-84.8047,5.18812,-89.9889,-1.21382
block_1,7782,9,12033,1,-110.152,-103.916,4.9281,-110.152,-1.28657
block_1,7783,9,12034,1,-110.033,-103.695,4.96831,-110.033,-1.28657
block_1,7784,9,12035,1,-130.5,-123.367,4.59024,-130.5,-1.35585
block_1,7785,9,12036,1,-130.362,-123.11,4.62832,-130.362,-1.35585
block_1,7786,9,12037,1,-150.617,-142.386,4.28985,-150.617,-1.42105
block_1,7787,9,12038,1,-150.458,-142.089,4.32544,-150.458,-1.42105
block_1,7788,9,12039,1,-130.222,-122.851,4.66639,-130.222,-1.35586
block_1,7789,9,12040,1,-130.081,-122.589,4.70447,-130.081,-1.35586
block_1,7790,9,12041,1,-150.296,-141.79,4.36103,-150.296,-1.42106
block_1,7791,9,12042,1,-150.134,-141.488,4.39661,-150.134,-1.42106
block_1,7792,9,12043,1,-89.8907,-84.6224,5.23011,-89.8907,-1.21382
block_1,7793,9,12044,1,-89.7916,-84.4385,5.27209,-89.7916,-1.21383
block_1,7794,9,12045,1,-109.913,-103.472,5.00851,-109.913,-1.28657
block_1,7795,9,12046,1,-109.792,-103.247,5.04872,-109.792,-1.28658
block_1,7796,9,12047,1,-89.6917,-84.2532,5.31408,-89.6917,-1.21383
block_1,7797,9,12048,1,-89.5911,-84.0665,5.35606,-89.5911,-1.21383
block_1,7798,9,12049,1,-109.67,-103.021,5.08893,-109.67,-1.28658
block_1,7799,9,12050,1,-109.547,-102.793,5.12914,-109.547,-1.28658
block_1,7800,9,12051,1,-129.939,-122.326,4.74255,-129.939,-1.35586
block_1,7801,9,12052,1,-129.796,-122.06,4.78062,-129.796,-1.35587
block_1,7802,9,12053,1,-149.97,-141.184,4.4322,-149.97,-1.42106
block_1,7803,9,12054,1,-149.805,-140.878,4.46779,-149.805,-1.42107
block_1,7804,9,12055,1,-129.652,-121.792,4.8187,-129.652,-1.35587
block_1,7805,9,12056,1,-129.506,-121.523,4.85678,-129.506,-1.35587
block_1,7806,9,12057,1,-149.638,-140.569,4.50338,-149.638,-1.42107
block_1,7807,9,12058,1,-149.47,-140.257,4.53897,-149.47,-1.42107
block_1,7808,9,12059,1,-172.137,-164.001,3.68453,-172.137,-1.4815
block_1,7809,9,12060,1,-171.967,-163.687,3.71728,-171.967,-1.4815
block_1,7810,9,12061,1,-192.429,-183.336,3.32381,-192.429,-1.53663
block_1,7811,9,12062,1,-192.24,-182.985,3.35336,-192.24,-1.53663
block_1,7812,9,12063,1,-171.796,-163.37,3.75002,-171.796,-1.48151
block_1,7813,9,12064,1,-171.624,-163.05,3.78277,-171.624,-1.48151
block_1,7814,9,12065,1,-192.049,-182.631,3.38291,-192.049,-1.53664
block_1,7815,9,12066,1,-191.857,-182.273,3.41245,-191.857,-1.53664
block_1,7816,9,12067,1,-212.729,-202.678,2.92298,-212.729,-1.58578
block_1,7817,9,12068,1,-212.52,-202.29,2.94897,-212.52,-1.58578
block_1,7818,9,12069,1,-233.036,-222.027,2.48204,-233.036,-1.62832
block_1,7819,9,12070,1,-232.807,-221.602,2.50412,-232.807,-1.62832
block_1,7820,9,12071,1,-212.309,-201.898,2.97497,-212.309,-1.58579
block_1,7821,9,12072,1,-212.096,-201.503,3.00096,-212.096,-1.58579
block_1,7822,9,12073,1,-232.576,-221.173,2.52621,-232.576,-1.62833
block_1,7823,9,12074,1,-232.343,-220.74,2.5483,-232.343,-1.62833
block_1,7824,9,12075,1,-171.45,-162.728,3.81551,-171.45,-1.48151
block_1,7825,9,12076,1,-171.275,-162.402,3.84826,-171.275,-1.48152
block_1,7826,9,12077,1,-191.662,-181.913,3.442,-191.662,-1.53664
block_1,7827,9,12078,1,-191.466,-181.549,3.47155,-191.466,-1.53665
block_1,7828,9,12079,1,-171.098,-162.074,3.88101,-171.098,-1.48152
block_1,7829,9,12080,1,-170.92,-161.744,3.91375,-170.92,-1.48152
block_1,7830,9,12081,1,-191.269,-181.183,3.5011,-191.269,-1.53665
block_1,7831,9,12082,1,-191.069,-180.813,3.53065,-191.069,-1.53665
block_1,7832,9,12083,1,-211.881,-201.105,3.02696,-211.881,-1.58579
block_1,7833,9,12084,1,-211.665,-200.703,3.05296,-211.665,-1.5858
block_1,7834,9,12085,1,-232.108,-220.304,2.57039,-232.108,-1.62833
block_1,7835,9,12086,1,-231.87,-219.864,2.59247,-231.87,-1.62834
block_1,7836,9,12087,1,-211.446,-200.297,3.07895,-211.446,-1.5858
block_1,7837,9,12088,1,-211.226,-199.889,3.10495,-211.226,-1.5858
block_1,7838,9,12089,1,-231.631,-219.42,2.61456,-231.631,-1.62834
block_1,7839,9,12090,1,-231.39,-218.972,2.63665,-231.39,-1.62834
block_1,7840,9,12091,1,-253.352,-241.384,2.00099,-253.352,-1.66362
block_1,7841,9,12092,1,-253.102,-240.922,2.01881,-253.102,-1.66362
block_1,7842,9,12093,1,-273.676,-260.751,1.47983,-273.676,-1.69105
block_1,7843,9,12094,1,-273.407,-260.251,1.49303,-273.407,-1.69106
block_1,7844,9,12095,1,-252.851,-240.456,2.03664,-252.851,-1.66363
block_1,7845,9,12096,1,-252.598,-239.986,2.05446,-252.598,-1.66363
block_1,7846,9,12097,1,-273.135,-259.748,1.50624,-273.135,-1.69106
block_1,7847,9,12098,1,-272.862,-259.24,1.51944,-272.862,-1.69106
block_1,7848,9,12099,1,-294.009,-280.126,0.918561,-294.009,-1.70999
block_1,7849,9,12100,1,-293.72,-279.59,0.926791,-293.72,-1.70999
block_1,7850,9,12101,1,-314.353,-299.512,0.317184,-314.353,-1.71979
block_1,7851,9,12102,1,-314.045,-298.939,0.320085,-314.045,-1.71979
block_1,7852,9,12103,1,-293.429,-279.049,0.935022,-293.429,-1.70999
block_1,7853,9,12104,1,-293.135,-278.504,0.943251,-293.135,-1.71
block_1,7854,9,12105,1,-313.733,-298.361,0.322985,-313.733,-1.7198
block_1,7855,9,12106,1,-313.419,-297.778,0.325884,-313.419,-1.7198
block_1,7856,9,12107,1,-252.342,-239.511,2.07228,-252.342,-1.66363
block_1,7857,9,12108,1,-252.084,-239.033,2.0901,-252.084,-1.66364
block_1,7858,9,12109,1,-272.585,-258.728,1.53265,-272.585,-1.69107
block_1,7859,9,12110,1,-272.307,-258.211,1.54585,-272.307,-1.69107
block_1,7860,9,12111,1,-251.824,-238.55,2.10793,-251.824,-1.66364
block_1,7861,9,12112,1,-251.562,-238.064,2.12575,-251.562,-1.66364
block_1,7862,9,12113,1,-272.026,-257.69,1.55905,-272.026,-1.69107
block_1,7863,9,12114,1,-271.743,-257.164,1.57225,-271.743,-1.69108
block_1,7864,9,12115,1,-292.838,-277.953,0.95148,-292.838,-1.71
block_1,7865,9,12116,1,-292.539,-277.398,0.959708,-292.539,-1.71
block_1,7866,9,12117,1,-313.102,-297.19,0.328782,-313.102,-1.7198
block_1,7867,9,12118,1,-312.782,-296.596,0.33168,-312.782,-1.71981
block_1,7868,9,12119,1,-292.237,-276.839,0.967935,-292.237,-1.71001
block_1,7869,9,12120,1,-291.933,-276.274,0.976162,-291.933,-1.71001
block_1,7870,9,12121,1,-312.459,-295.998,0.334576,-312.459,-1.71981
block_1,7871,9,12122,1,-312.134,-295.394,0.337472,-312.134,-1.71981
block_1,7872,9,12123,1,-170.74,-161.41,3.9465,-170.74,-1.48153
block_1,7873,9,12124,1,-170.559,-161.074,3.97925,-170.559,-1.48153
block_1,7874,9,12125,1,-190.869,-180.44,3.5602,-190.869,-1.53666
block_1,7875,9,12126,1,-190.666,-180.064,3.58975,-190.666,-1.53666
block_1,7876,9,12127,1,-170.376,-160.734,4.01199,-170.376,-1.48154
block_1,7877,9,12128,1,-170.192,-160.392,4.04474,-170.192,-1.48154
block_1,7878,9,12129,1,-190.462,-179.685,3.61929,-190.462,-1.53666
block_1,7879,9,12130,1,-190.256,-179.303,3.64884,-190.256,-1.53667
block_1,7880,9,12131,1,-211.004,-199.477,3.13094,-211.004,-1.58581
block_1,7881,9,12132,1,-210.78,-199.061,3.15694,-210.78,-1.58581
block_1,7882,9,12133,1,-231.147,-218.521,2.65873,-231.147,-1.62835
block_1,7883,9,12134,1,-230.901,-218.066,2.68082,-230.901,-1.62835
block_1,7884,9,12135,1,-210.554,-198.642,3.18293,-210.554,-1.58581
block_1,7885,9,12136,1,-210.326,-198.22,3.20893,-210.326,-1.58582
block_1,7886,9,12137,1,-230.654,-217.607,2.7029,-230.654,-1.62835
block_1,7887,9,12138,1,-230.405,-217.144,2.72499,-230.405,-1.62836
block_1,7888,9,12139,1,-170.006,-160.048,4.07749,-170.006,-1.48154
block_1,7889,9,12140,1,-169.819,-159.7,4.11023,-169.819,-1.48155
block_1,7890,9,12141,1,-190.048,-178.917,3.67839,-190.048,-1.53667
block_1,7891,9,12142,1,-189.839,-178.529,3.70794,-189.839,-1.53668
block_1,7892,9,12143,1,-169.63,-159.35,4.14298,-169.63,-1.48155
block_1,7893,9,12144,1,-169.44,-158.997,4.17573,-169.44,-1.48155
block_1,7894,9,12145,1,-189.628,-178.138,3.73749,-189.628,-1.53668
block_1,7895,9,12146,1,-189.415,-177.743,3.76704,-189.415,-1.53668
block_1,7896,9,12147,1,-210.097,-197.794,3.23492,-210.097,-1.58582
block_1,7897,9,12148,1,-209.866,-197.364,3.26092,-209.866,-1.58583
block_1,7898,9,12149,1,-230.153,-216.678,2.74708,-230.153,-1.62836
block_1,7899,9,12150,1,-229.9,-216.207,2.76916,-229.9,-1.62837
block_1,7900,9,12151,1,-209.632,-196.932,3.28691,-209.632,-1.58583
block_1,7901,9,12152,1,-209.397,-196.496,3.3129,-209.397,-1.58583
block_1,7902,9,12153,1,-229.644,-215.733,2.79125,-229.644,-1.62837
block_1,7903,9,12154,1,-229.387,-215.256,2.81333,-229.387,-1.62837
block_1,7904,9,12155,1,-251.297,-237.573,2.14357,-251.297,-1.66365
block_1,7905,9,12156,1,-251.031,-237.078,2.16139,-251.031,-1.66365
block_1,7906,9,12157,1,-271.457,-256.634,1.58546,-271.457,-1.69108
block_1,7907,9,12158,1,-271.169,-256.1,1.59866,-271.169,-1.69108
block_1,7908,9,12159,1,-250.762,-236.579,2.17921,-250.762,-1.66366
block_1,7909,9,12160,1,-250.491,-236.076,2.19703,-250.491,-1.66366
block_1,7910,9,12161,1,-270.879,-255.561,1.61186,-270.879,-1.69109
block_1,7911,9,12162,1,-270.586,-255.018,1.62506,-270.586,-1.69109
block_1,7912,9,12163,1,-291.626,-275.705,0.984388,-291.626,-1.71001
block_1,7913,9,12164,1,-291.317,-275.131,0.992613,-291.317,-1.71002
block_1,7914,9,12165,1,-311.806,-294.786,0.340367,-311.806,-1.71982
block_1,7915,9,12166,1,-311.475,-294.172,0.343261,-311.475,-1.71982
block_1,7916,9,12167,1,-291.005,-274.552,1.00084,-291.005,-1.71002
block_1,7917,9,12168,1,-290.691,-273.969,1.00906,-290.691,-1.71002
block_1,7918,9,12169,1,-311.142,-293.554,0.346155,-311.142,-1.71982
block_1,7919,9,12170,1,-310.806,-292.93,0.349047,-310.806,-1.71982
block_1,7920,9,12171,1,-250.218,-235.569,2.21485,-250.218,-1.66366
block_1,7921,9,12172,1,-249.942,-235.058,2.23267,-249.942,-1.66367
block_1,7922,9,12173,1,-270.291,-254.47,1.63826,-270.291,-1.69109
block_1,7923,9,12174,1,-269.993,-253.918,1.65146,-269.993,-1.6911
block_1,7924,9,12175,1,-249.665,-234.543,2.25049,-249.665,-1.66367
block_1,7925,9,12176,1,-249.385,-234.024,2.26831,-249.385,-1.66367
block_1,7926,9,12177,1,-269.694,-253.362,1.66466,-269.694,-1.6911
block_1,7927,9,12178,1,-269.391,-252.801,1.67785,-269.391,-1.6911
block_1,7928,9,12179,1,-290.374,-273.38,1.01729,-290.374,-1.71003
block_1,7929,9,12180,1,-290.054,-272.788,1.02551,-290.054,-1.71003
block_1,7930,9,12181,1,-310.467,-292.301,0.351939,-310.467,-1.71983
block_1,7931,9,12182,1,-310.125,-291.667,0.354831,-310.125,-1.71983
block_1,7932,9,12183,1,-289.732,-272.19,1.03373,-289.732,-1.71003
block_1,7933,9,12184,1,-289.408,-271.588,1.04195,-289.408,-1.71004
block_1,7934,9,12185,1,-309.781,-291.028,0.357721,-309.781,-1.71983
block_1,7935,9,12186,1,-309.434,-290.384,0.360611,-309.434,-1.71984
block_1,7936,9,12187,1,-12.3864,-9.1661,5.85485,-9.78233,-0.900824
block_1,7937,9,12188,1,-12.4054,-9.14526,5.90038,-9.7711,-0.900827
block_1,7938,9,12189,1,-29.8864,-27.8418,5.80934,-29.7069,-0.981118
block_1,7939,9,12190,1,-29.8531,-27.7788,5.85452,-29.6729,-0.981121
block_1,7940,9,12191,1,-12.4244,-9.12426,5.94591,-9.75979,-0.900829
block_1,7941,9,12192,1,-12.4435,-9.1031,5.99145,-9.74839,-0.900832
block_1,7942,9,12193,1,-29.8195,-27.7152,5.8997,-29.6387,-0.981124
block_1,7943,9,12194,1,-29.7857,-27.6512,5.94488,-29.6041,-0.981127
block_1,7944,9,12195,1,-49.6325,-46.5186,5.71804,-49.6325,-1.06047
block_1,7945,9,12196,1,-49.5757,-46.4134,5.76251,-49.5757,-1.06047
block_1,7946,9,12197,1,-69.5598,-65.1972,5.58094,-69.5598,-1.13825
block_1,7947,9,12198,1,-69.4803,-65.0497,5.62435,-69.4803,-1.13826
block_1,7948,9,12199,1,-49.5186,-46.3073,5.80698,-49.5186,-1.06048
block_1,7949,9,12200,1,-49.461,-46.2004,5.85146,-49.461,-1.06048
block_1,7950,9,12201,1,-69.4003,-64.9011,5.66775,-69.4003,-1.13826
block_1,7951,9,12202,1,-69.3196,-64.7513,5.71116,-69.3196,-1.13826
block_1,7952,9,12203,1,-12.4626,-9.08178,6.03698,-9.7369,-0.900835
block_1,7953,9,12204,1,-12.4817,-9.06029,6.08252,-9.72533,-0.900837
block_1,7954,9,12205,1,-29.7516,-27.5867,5.99007,-29.5694,-0.98113
block_1,7955,9,12206,1,-29.7173,-27.5217,6.03525,-29.5344,-0.981132
block_1,7956,9,12207,1,-12.5009,-9.03865,6.12805,-9.71367,-0.90084
block_1,7957,9,12208,1,-12.5202,-9.01684,6.17359,-9.70192,-0.900843
block_1,7958,9,12209,1,-29.6827,-27.4562,6.08043,-29.4991,-0.981135
block_1,7959,9,12210,1,-29.6478,-27.3902,6.12561,-29.4635,-0.981138
block_1,7960,9,12211,1,-49.4029,-46.0927,5.89593,-49.4029,-1.06048
block_1,7961,9,12212,1,-49.3444,-45.9841,5.9404,-49.3444,-1.06049
block_1,7962,9,12213,1,-69.2382,-64.6004,5.75457,-69.2382,-1.13827
block_1,7963,9,12214,1,-69.1563,-64.4483,5.79798,-69.1563,-1.13827
block_1,7964,9,12215,1,-49.2855,-45.8748,5.98487,-49.2855,-1.06049
block_1,7965,9,12216,1,-49.2262,-45.7646,6.02935,-49.2262,-1.06049
block_1,7966,9,12217,1,-69.0738,-64.2951,5.84138,-69.0738,-1.13827
block_1,7967,9,12218,1,-68.9906,-64.1408,5.88479,-68.9906,-1.13828
block_1,7968,9,12219,1,-89.4897,-83.8782,5.39805,-89.4897,-1.21384
block_1,7969,9,12220,1,-89.3874,-83.6885,5.44003,-89.3874,-1.21384
block_1,7970,9,12221,1,-109.423,-102.562,5.16935,-109.423,-1.28659
block_1,7971,9,12222,1,-109.298,-102.331,5.20956,-109.298,-1.28659
block_1,7972,9,12223,1,-89.2844,-83.4973,5.48202,-89.2844,-1.21384
block_1,7973,9,12224,1,-89.1806,-83.3047,5.524,-89.1806,-1.21385
block_1,7974,9,12225,1,-109.172,-102.097,5.24977,-109.172,-1.28659
block_1,7975,9,12226,1,-109.045,-101.861,5.28998,-109.045,-1.2866
block_1,7976,9,12227,1,-129.36,-121.251,4.89486,-129.36,-1.35588
block_1,7977,9,12228,1,-129.212,-120.976,4.93293,-129.212,-1.35588
block_1,7978,9,12229,1,-149.301,-139.943,4.57456,-149.301,-1.42108
block_1,7979,9,12230,1,-149.131,-139.627,4.61015,-149.131,-1.42108
block_1,7980,9,12231,1,-129.063,-120.7,4.97101,-129.063,-1.35588
block_1,7981,9,12232,1,-128.913,-120.422,5.00909,-128.913,-1.35589
block_1,7982,9,12233,1,-148.959,-139.308,4.64574,-148.959,-1.42108
block_1,7983,9,12234,1,-148.786,-138.987,4.68133,-148.786,-1.42109
block_1,7984,9,12235,1,-89.076,-83.1106,5.56599,-89.076,-1.21385
block_1,7985,9,12236,1,-88.9706,-82.915,5.60798,-88.9706,-1.21385
block_1,7986,9,12237,1,-108.917,-101.624,5.33019,-108.917,-1.2866
block_1,7987,9,12238,1,-108.788,-101.385,5.3704,-108.788,-1.2866
block_1,7988,9,12239,1,-88.8645,-82.718,5.64996,-88.8645,-1.21386
block_1,7989,9,12240,1,-88.7575,-82.5194,5.69195,-88.7575,-1.21386
block_1,7990,9,12241,1,-108.658,-101.144,5.41061,-108.658,-1.28661
block_1,7991,9,12242,1,-108.528,-100.901,5.45082,-108.528,-1.28661
block_1,7992,9,12243,1,-128.762,-120.141,5.04717,-128.762,-1.35589
block_1,7993,9,12244,1,-128.61,-119.859,5.08525,-128.61,-1.3559
block_1,7994,9,12245,1,-148.611,-138.663,4.71693,-148.611,-1.42109
block_1,7995,9,12246,1,-148.436,-138.337,4.75252,-148.436,-1.4211
block_1,7996,9,12247,1,-128.456,-119.574,5.12332,-128.456,-1.3559
block_1,7997,9,12248,1,-128.302,-119.287,5.1614,-128.302,-1.3559
block_1,7998,9,12249,1,-148.259,-138.008,4.78811,-148.259,-1.4211
block_1,7999,9,12250,1,-148.08,-137.677,4.8237,-148.08,-1.4211
block_1,8000,9,12251,1,-12.5395,-8.99488,6.21913,-9.69009,-0.900845
block_1,8001,9,12252,1,-12.5588,-8.97275,6.26466,-9.67817,-0.900848
block_1,8002,9,12253,1,-29.6127,-27.3237,6.17079,-29.4277,-0.981141
block_1,8003,9,12254,1,-29.5773,-27.2568,6.21598,-29.3916,-0.981144
block_1,8004,9,12255,1,-12.5782,-8.95045,6.3102,-9.66616,-0.900851
block_1,8005,9,12256,1,-12.5976,-8.928,6.35574,-9.65406,-0.900854
block_1,8006,9,12257,1,-29.5416,-27.1893,6.26116,-29.3553,-0.981147
block_1,8007,9,12258,1,-29.5057,-27.1214,6.30635,-29.3187,-0.98115
block_1,8008,9,12259,1,-49.1664,-45.6536,6.07382,-49.1664,-1.0605
block_1,8009,9,12260,1,-49.1061,-45.5418,6.11829,-49.1061,-1.0605
block_1,8010,9,12261,1,-68.9068,-63.9853,5.9282,-68.9068,-1.13828
block_1,8011,9,12262,1,-68.8224,-63.8287,5.97161,-68.8224,-1.13828
block_1,8012,9,12263,1,-49.0455,-45.4292,6.16277,-49.0455,-1.0605
block_1,8013,9,12264,1,-48.9844,-45.3158,6.20724,-48.9844,-1.06051
block_1,8014,9,12265,1,-68.7374,-63.6709,6.01502,-68.7374,-1.13829
block_1,8015,9,12266,1,-68.6518,-63.512,6.05843,-68.6518,-1.13829
block_1,8016,9,12267,1,-12.6171,-8.90539,6.40128,-9.64188,-0.900857
block_1,8017,9,12268,1,-12.6366,-8.88261,6.44682,-9.62961,-0.900859
block_1,8018,9,12269,1,-29.4696,-27.053,6.35153,-29.2818,-0.981153
block_1,8019,9,12270,1,-29.4331,-26.984,6.39672,-29.2447,-0.981156
block_1,8020,9,12271,1,-12.6561,-8.85967,6.49236,-9.61725,-0.900862
block_1,8021,9,12272,1,-12.6757,-8.83658,6.53789,-9.60481,-0.900865
block_1,8022,9,12273,1,-29.3964,-26.9146,6.4419,-29.2073,-0.981159
block_1,8023,9,12274,1,-29.3595,-26.8447,6.48709,-29.1696,-0.981162
block_1,8024,9,12275,1,-48.9228,-45.2016,6.25172,-48.9228,-1.06051
block_1,8025,9,12276,1,-48.8608,-45.0865,6.29619,-48.8608,-1.06051
block_1,8026,9,12277,1,-68.5656,-63.352,6.10184,-68.5656,-1.13829
block_1,8027,9,12278,1,-68.4787,-63.1908,6.14525,-68.4787,-1.1383
block_1,8028,9,12279,1,-48.7984,-44.9707,6.34067,-48.7984,-1.06052
block_1,8029,9,12280,1,-48.7355,-44.854,6.38515,-48.7355,-1.06052
block_1,8030,9,12281,1,-68.3913,-63.0284,6.18866,-68.3913,-1.1383
block_1,8031,9,12282,1,-68.3032,-62.865,6.23207,-68.3032,-1.1383
block_1,8032,9,12283,1,-88.6497,-82.3195,5.73394,-88.6497,-1.21386
block_1,8033,9,12284,1,-88.5412,-82.118,5.77593,-88.5412,-1.21387
block_1,8034,9,12285,1,-108.396,-100.657,5.49103,-108.396,-1.28661
block_1,8035,9,12286,1,-108.263,-100.411,5.53124,-108.263,-1.28662
block_1,8036,9,12287,1,-88.4319,-81.9151,5.81791,-88.4319,-1.21387
block_1,8037,9,12288,1,-88.3217,-81.7107,5.8599,-88.3217,-1.21387
block_1,8038,9,12289,1,-108.129,-100.162,5.57146,-108.129,-1.28662
block_1,8039,9,12290,1,-107.995,-99.9125,5.61167,-107.995,-1.28663
block_1,8040,9,12291,1,-128.146,-118.998,5.19948,-128.146,-1.35591
block_1,8041,9,12292,1,-127.989,-118.707,5.23756,-127.989,-1.35591
block_1,8042,9,12293,1,-147.9,-137.344,4.85929,-147.9,-1.42111
block_1,8043,9,12294,1,-147.719,-137.008,4.89488,-147.719,-1.42111
block_1,8044,9,12295,1,-127.831,-118.414,5.27564,-127.831,-1.35591
block_1,8045,9,12296,1,-127.672,-118.118,5.31372,-127.672,-1.35592
block_1,8046,9,12297,1,-147.537,-136.669,4.93047,-147.537,-1.42112
block_1,8047,9,12298,1,-147.353,-136.329,4.96607,-147.353,-1.42112
block_1,8048,9,12299,1,-88.2108,-81.5048,5.90189,-88.2108,-1.21388
block_1,8049,9,12300,1,-88.0991,-81.2975,5.94388,-88.0991,-1.21388
block_1,8050,9,12301,1,-107.859,-99.6609,5.65188,-107.859,-1.28663
block_1,8051,9,12302,1,-107.723,-99.4074,5.69209,-107.723,-1.28663
block_1,8052,9,12303,1,-87.9866,-81.0887,5.98587,-87.9866,-1.21388
block_1,8053,9,12304,1,-87.8733,-80.8784,6.02786,-87.8733,-1.21389
block_1,8054,9,12305,1,-107.585,-99.1521,5.73231,-107.585,-1.28664
block_1,8055,9,12306,1,-107.447,-98.8951,5.77252,-107.447,-1.28664
block_1,8056,9,12307,1,-127.512,-117.821,5.3518,-127.512,-1.35592
block_1,8057,9,12308,1,-127.35,-117.521,5.38988,-127.35,-1.35593
block_1,8058,9,12309,1,-147.169,-135.985,5.00166,-147.169,-1.42112
block_1,8059,9,12310,1,-146.982,-135.64,5.03725,-146.982,-1.42113
block_1,8060,9,12311,1,-127.188,-117.219,5.42796,-127.188,-1.35593
block_1,8061,9,12312,1,-127.024,-116.916,5.46604,-127.024,-1.35593
block_1,8062,9,12313,1,-146.795,-135.291,5.07284,-146.795,-1.42113
block_1,8063,9,12314,1,-146.606,-134.941,5.10843,-146.606,-1.42114
block_1,8064,9,12315,1,-169.248,-158.641,4.20847,-169.248,-1.48156
block_1,8065,9,12316,1,-169.055,-158.283,4.24122,-169.055,-1.48156
block_1,8066,9,12317,1,-189.201,-177.345,3.79658,-189.201,-1.53669
block_1,8067,9,12318,1,-188.985,-176.944,3.82613,-188.985,-1.53669
block_1,8068,9,12319,1,-168.86,-157.921,4.27397,-168.86,-1.48156
block_1,8069,9,12320,1,-168.664,-157.557,4.30672,-168.664,-1.48157
block_1,8070,9,12321,1,-188.767,-176.541,3.85568,-188.767,-1.53669
block_1,8071,9,12322,1,-188.548,-176.134,3.88523,-188.548,-1.5367
block_1,8072,9,12323,1,-209.16,-196.056,3.3389,-209.16,-1.58584
block_1,8073,9,12324,1,-208.922,-195.613,3.36489,-208.922,-1.58584
block_1,8074,9,12325,1,-229.127,-214.774,2.83541,-229.127,-1.62838
block_1,8075,9,12326,1,-228.866,-214.289,2.8575,-228.866,-1.62838
block_1,8076,9,12327,1,-208.681,-195.167,3.39089,-208.681,-1.58584
block_1,8077,9,12328,1,-208.439,-194.717,3.41688,-208.439,-1.58585
block_1,8078,9,12329,1,-228.603,-213.8,2.87958,-228.603,-1.62838
block_1,8079,9,12330,1,-228.337,-213.307,2.90167,-228.337,-1.62839
block_1,8080,9,12331,1,-168.466,-157.19,4.33946,-168.466,-1.48157
block_1,8081,9,12332,1,-168.267,-156.821,4.37221,-168.267,-1.48158
block_1,8082,9,12333,1,-188.327,-175.724,3.91478,-188.327,-1.5367
block_1,8083,9,12334,1,-188.104,-175.31,3.94433,-188.104,-1.53671
block_1,8084,9,12335,1,-168.066,-156.448,4.40496,-168.066,-1.48158
block_1,8085,9,12336,1,-167.864,-156.073,4.43771,-167.864,-1.48158
block_1,8086,9,12337,1,-187.88,-174.894,3.97388,-187.88,-1.53671
block_1,8087,9,12338,1,-187.654,-174.475,4.00343,-187.654,-1.53671
block_1,8088,9,12339,1,-208.194,-194.263,3.44288,-208.194,-1.58585
block_1,8089,9,12340,1,-207.948,-193.807,3.46887,-207.948,-1.58586
block_1,8090,9,12341,1,-228.069,-212.811,2.92375,-228.069,-1.62839
block_1,8091,9,12342,1,-227.8,-212.311,2.94583,-227.8,-1.6284
block_1,8092,9,12343,1,-207.7,-193.347,3.49486,-207.7,-1.58586
block_1,8093,9,12344,1,-207.451,-192.883,3.52086,-207.451,-1.58586
block_1,8094,9,12345,1,-227.528,-211.807,2.96792,-227.528,-1.6284
block_1,8095,9,12346,1,-227.255,-211.299,2.99,-227.255,-1.6284
block_1,8096,9,12347,1,-249.103,-233.501,2.28613,-249.103,-1.66368
block_1,8097,9,12348,1,-248.818,-232.973,2.30395,-248.818,-1.66368
block_1,8098,9,12349,1,-269.087,-252.236,1.69105,-269.087,-1.69111
block_1,8099,9,12350,1,-268.78,-251.666,1.70425,-268.78,-1.69111
block_1,8100,9,12351,1,-248.532,-232.442,2.32177,-248.532,-1.66368
block_1,8101,9,12352,1,-248.243,-231.906,2.33959,-248.243,-1.66369
block_1,8102,9,12353,1,-268.47,-251.092,1.71745,-268.47,-1.69112
block_1,8103,9,12354,1,-268.159,-250.513,1.73064,-268.159,-1.69112
block_1,8104,9,12355,1,-289.08,-270.98,1.05018,-289.08,-1.71004
block_1,8105,9,12356,1,-288.751,-270.369,1.0584,-288.751,-1.71004
block_1,8106,9,12357,1,-309.084,-289.735,0.3635,-309.084,-1.71984
block_1,8107,9,12358,1,-308.732,-289.081,0.366389,-308.732,-1.71984
block_1,8108,9,12359,1,-288.418,-269.752,1.06662,-288.418,-1.71005
block_1,8109,9,12360,1,-288.084,-269.131,1.07484,-288.084,-1.71005
block_1,8110,9,12361,1,-308.377,-288.422,0.369277,-308.377,-1.71985
block_1,8111,9,12362,1,-308.019,-287.758,0.372164,-308.019,-1.71985
block_1,8112,9,12363,1,-247.953,-231.366,2.35741,-247.953,-1.66369
block_1,8113,9,12364,1,-247.66,-230.822,2.37522,-247.66,-1.6637
block_1,8114,9,12365,1,-267.845,-249.931,1.74384,-267.845,-1.69112
block_1,8115,9,12366,1,-267.528,-249.343,1.75704,-267.528,-1.69113
block_1,8116,9,12367,1,-247.364,-230.275,2.39304,-247.364,-1.6637
block_1,8117,9,12368,1,-247.067,-229.723,2.41086,-247.067,-1.6637
block_1,8118,9,12369,1,-267.209,-248.752,1.77023,-267.209,-1.69113
block_1,8119,9,12370,1,-266.888,-248.156,1.78343,-266.888,-1.69113
block_1,8120,9,12371,1,-287.746,-268.504,1.08306,-287.746,-1.71005
block_1,8121,9,12372,1,-287.406,-267.874,1.09127,-287.406,-1.71006
block_1,8122,9,12373,1,-307.658,-287.089,0.37505,-307.658,-1.71986
block_1,8123,9,12374,1,-307.295,-286.414,0.377936,-307.295,-1.71986
block_1,8124,9,12375,1,-287.064,-267.238,1.09949,-287.064,-1.71006
block_1,8125,9,12376,1,-286.719,-266.598,1.10771,-286.719,-1.71007
block_1,8126,9,12377,1,-306.929,-285.735,0.380821,-306.929,-1.71986
block_1,8127,9,12378,1,-306.56,-285.05,0.383706,-306.56,-1.71987
block_1,8128,9,12379,1,-167.66,-155.695,4.47045,-167.66,-1.48159
block_1,8129,9,12380,1,-167.455,-155.314,4.5032,-167.455,-1.48159
block_1,8130,9,12381,1,-187.426,-174.052,4.03297,-187.426,-1.53672
block_1,8131,9,12382,1,-187.197,-173.626,4.06252,-187.197,-1.53672
block_1,8132,9,12383,1,-167.249,-154.931,4.53595,-167.249,-1.4816
block_1,8133,9,12384,1,-167.04,-154.544,4.5687,-167.04,-1.4816
block_1,8134,9,12385,1,-186.966,-173.198,4.09207,-186.966,-1.53673
block_1,8135,9,12386,1,-186.733,-172.766,4.12162,-186.733,-1.53673
block_1,8136,9,12387,1,-207.199,-192.416,3.54685,-207.199,-1.58587
block_1,8137,9,12388,1,-206.946,-191.946,3.57284,-206.946,-1.58587
block_1,8138,9,12389,1,-226.979,-210.787,3.01209,-226.979,-1.62841
block_1,8139,9,12390,1,-226.702,-210.272,3.03417,-226.702,-1.62841
block_1,8140,9,12391,1,-206.69,-191.472,3.59884,-206.69,-1.58588
block_1,8141,9,12392,1,-206.433,-190.994,3.62483,-206.433,-1.58588
block_1,8142,9,12393,1,-226.422,-209.753,3.05625,-226.422,-1.62842
block_1,8143,9,12394,1,-226.14,-209.23,3.07833,-226.14,-1.62842
block_1,8144,9,12395,1,-166.831,-154.155,4.60145,-166.831,-1.4816
block_1,8145,9,12396,1,-166.62,-153.763,4.63419,-166.62,-1.48161
block_1,8146,9,12397,1,-186.499,-172.331,4.15117,-186.499,-1.53673
block_1,8147,9,12398,1,-186.263,-171.893,4.18072,-186.263,-1.53674
block_1,8148,9,12399,1,-166.407,-153.369,4.66694,-166.407,-1.48161
block_1,8149,9,12400,1,-166.193,-152.971,4.69969,-166.193,-1.48162
block_1,8150,9,12401,1,-186.025,-171.452,4.21027,-186.025,-1.53674
block_1,8151,9,12402,1,-185.786,-171.008,4.23982,-185.786,-1.53675
block_1,8152,9,12403,1,-206.174,-190.514,3.65083,-206.174,-1.58588
block_1,8153,9,12404,1,-205.913,-190.029,3.67682,-205.913,-1.58589
block_1,8154,9,12405,1,-225.856,-208.704,3.10042,-225.856,-1.62842
block_1,8155,9,12406,1,-225.571,-208.173,3.1225,-225.571,-1.62843
block_1,8156,9,12407,1,-205.65,-189.542,3.70281,-205.65,-1.58589
block_1,8157,9,12408,1,-205.386,-189.051,3.72881,-205.386,-1.5859
block_1,8158,9,12409,1,-225.283,-207.639,3.14458,-225.283,-1.62843
block_1,8159,9,12410,1,-224.993,-207.101,3.16666,-224.993,-1.62844
block_1,8160,9,12411,1,-246.767,-229.167,2.42868,-246.767,-1.66371
block_1,8161,9,12412,1,-246.466,-228.607,2.44649,-246.466,-1.66371
block_1,8162,9,12413,1,-266.565,-247.555,1.79662,-266.565,-1.69114
block_1,8163,9,12414,1,-266.239,-246.95,1.80982,-266.239,-1.69114
block_1,8164,9,12415,1,-246.162,-228.042,2.46431,-246.162,-1.66372
block_1,8165,9,12416,1,-245.855,-227.474,2.48213,-245.855,-1.66372
block_1,8166,9,12417,1,-265.91,-246.341,1.82301,-265.91,-1.69115
block_1,8167,9,12418,1,-265.58,-245.727,1.83621,-265.58,-1.69115
block_1,8168,9,12419,1,-286.371,-265.953,1.11593,-286.371,-1.71007
block_1,8169,9,12420,1,-286.021,-265.303,1.12415,-286.021,-1.71007
block_1,8170,9,12421,1,-306.188,-284.361,0.38659,-306.188,-1.71987
block_1,8171,9,12422,1,-305.814,-283.666,0.389473,-305.814,-1.71987
block_1,8172,9,12423,1,-285.668,-264.649,1.13236,-285.668,-1.71008
block_1,8173,9,12424,1,-285.313,-263.989,1.14058,-285.313,-1.71008
block_1,8174,9,12425,1,-305.437,-282.967,0.392356,-305.437,-1.71988
block_1,8175,9,12426,1,-305.057,-282.262,0.395239,-305.057,-1.71988
block_1,8176,9,12427,1,-245.547,-226.902,2.49994,-245.547,-1.66372
block_1,8177,9,12428,1,-245.236,-226.325,2.51776,-245.236,-1.66373
block_1,8178,9,12429,1,-265.247,-245.109,1.8494,-265.247,-1.69115
block_1,8179,9,12430,1,-264.911,-244.486,1.86259,-264.911,-1.69116
block_1,8180,9,12431,1,-244.924,-225.745,2.53557,-244.924,-1.66373
block_1,8181,9,12432,1,-244.609,-225.16,2.55339,-244.609,-1.66374
block_1,8182,9,12433,1,-264.573,-243.859,1.87579,-264.573,-1.69116
block_1,8183,9,12434,1,-264.233,-243.228,1.88898,-264.233,-1.69117
block_1,8184,9,12435,1,-284.956,-263.325,1.14879,-284.956,-1.71008
block_1,8185,9,12436,1,-284.595,-262.657,1.15701,-284.595,-1.71009
block_1,8186,9,12437,1,-304.675,-281.552,0.39812,-304.675,-1.71988
block_1,8187,9,12438,1,-304.29,-280.837,0.401001,-304.29,-1.71989
block_1,8188,9,12439,1,-284.232,-261.983,1.16522,-284.232,-1.71009
block_1,8189,9,12440,1,-283.867,-261.305,1.17344,-283.867,-1.7101
block_1,8190,9,12441,1,-303.902,-280.117,0.403882,-303.902,-1.71989
block_1,8191,9,12442,1,-303.511,-279.392,0.406762,-303.511,-1.7199
block_1,8192,9,12443,1,-12.6953,-8.81332,6.58343,-9.59228,-0.900868
block_1,8193,9,12444,1,-12.7149,-8.78989,6.62897,-9.57967,-0.900871
block_1,8194,9,12445,1,-29.3223,-26.7744,6.53227,-29.1317,-0.981165
block_1,8195,9,12446,1,-29.2848,-26.7035,6.57746,-29.0936,-0.981169
block_1,8196,9,12447,1,-12.7346,-8.76631,6.67452,-9.56696,-0.900874
block_1,8197,9,12448,1,-12.7543,-8.74256,6.72006,-9.55417,-0.900877
block_1,8198,9,12449,1,-29.2471,-26.6321,6.62265,-29.0551,-0.981172
block_1,8199,9,12450,1,-29.2091,-26.5603,6.66783,-29.0164,-0.981175
block_1,8200,9,12451,1,-48.6722,-44.7365,6.42962,-48.6722,-1.06052
block_1,8201,9,12452,1,-48.6085,-44.6182,6.4741,-48.6085,-1.06053
block_1,8202,9,12453,1,-68.2145,-62.7003,6.27548,-68.2145,-1.13831
block_1,8203,9,12454,1,-68.1252,-62.5346,6.31889,-68.1252,-1.13831
block_1,8204,9,12455,1,-48.5443,-44.499,6.51858,-48.5443,-1.06053
block_1,8205,9,12456,1,-48.4797,-44.3791,6.56305,-48.4797,-1.06053
block_1,8206,9,12457,1,-68.0353,-62.3677,6.36231,-68.0353,-1.13831
block_1,8207,9,12458,1,-67.9448,-62.1996,6.40572,-67.9448,-1.13832
block_1,8208,9,12459,1,-12.774,-8.71866,6.7656,-9.54129,-0.90088
block_1,8209,9,12460,1,-12.7938,-8.69459,6.81114,-9.52833,-0.900883
block_1,8210,9,12461,1,-29.1709,-26.488,6.71302,-28.9774,-0.981178
block_1,8211,9,12462,1,-29.1324,-26.4151,6.75821,-28.9382,-0.981181
block_1,8212,9,12463,1,-12.8135,-8.67036,6.85668,-9.51528,-0.900886
block_1,8213,9,12464,1,-12.8334,-8.64596,6.90222,-9.50214,-0.900889
block_1,8214,9,12465,1,-29.0936,-26.3418,6.8034,-28.8987,-0.981185
block_1,8215,9,12466,1,-29.0546,-26.268,6.84859,-28.859,-0.981188
block_1,8216,9,12467,1,-48.4146,-44.2583,6.60753,-48.4146,-1.06054
block_1,8217,9,12468,1,-48.3491,-44.1368,6.65201,-48.3491,-1.06054
block_1,8218,9,12469,1,-67.8536,-62.0305,6.44913,-67.8536,-1.13832
block_1,8219,9,12470,1,-67.7618,-61.8601,6.49254,-67.7618,-1.13833
block_1,8220,9,12471,1,-48.2832,-44.0144,6.69649,-48.2832,-1.06054
block_1,8221,9,12472,1,-48.2168,-43.8912,6.74097,-48.2168,-1.06055
block_1,8222,9,12473,1,-67.6695,-61.6887,6.53596,-67.6695,-1.13833
block_1,8223,9,12474,1,-67.5765,-61.516,6.57937,-67.5765,-1.13833
block_1,8224,9,12475,1,-87.7593,-80.6667,6.06985,-87.7593,-1.21389
block_1,8225,9,12476,1,-87.6444,-80.4535,6.11184,-87.6444,-1.2139
block_1,8226,9,12477,1,-107.307,-98.6362,5.81273,-107.307,-1.28664
block_1,8227,9,12478,1,-107.167,-98.3756,5.85295,-107.167,-1.28665
block_1,8228,9,12479,1,-87.5287,-80.2388,6.15383,-87.5287,-1.2139
block_1,8229,9,12480,1,-87.4123,-80.0227,6.19582,-87.4123,-1.2139
block_1,8230,9,12481,1,-107.025,-98.1131,5.89316,-107.025,-1.28665
block_1,8231,9,12482,1,-106.883,-97.8489,5.93337,-106.883,-1.28666
block_1,8232,9,12483,1,-126.859,-116.61,5.50412,-126.859,-1.35594
block_1,8233,9,12484,1,-126.693,-116.302,5.54221,-126.693,-1.35594
block_1,8234,9,12485,1,-146.415,-134.588,5.14403,-146.415,-1.42114
block_1,8235,9,12486,1,-146.224,-134.232,5.17962,-146.224,-1.42114
block_1,8236,9,12487,1,-126.526,-115.991,5.58029,-126.526,-1.35595
block_1,8237,9,12488,1,-126.358,-115.679,5.61837,-126.358,-1.35595
block_1,8238,9,12489,1,-146.031,-133.874,5.21521,-146.031,-1.42115
block_1,8239,9,12490,1,-145.837,-133.514,5.25081,-145.837,-1.42115
block_1,8240,9,12491,1,-87.2951,-79.8051,6.23782,-87.2951,-1.21391
block_1,8241,9,12492,1,-87.177,-79.586,6.27981,-87.177,-1.21391
block_1,8242,9,12493,1,-106.74,-97.5829,5.97359,-106.74,-1.28666
block_1,8243,9,12494,1,-106.595,-97.315,6.0138,-106.595,-1.28666
block_1,8244,9,12495,1,-87.0582,-79.3654,6.3218,-87.0582,-1.21391
block_1,8245,9,12496,1,-86.9386,-79.1434,6.36379,-86.9386,-1.21392
block_1,8246,9,12497,1,-106.45,-97.0454,6.05402,-106.45,-1.28667
block_1,8247,9,12498,1,-106.304,-96.774,6.09423,-106.304,-1.28667
block_1,8248,9,12499,1,-126.188,-115.365,5.65645,-126.188,-1.35595
block_1,8249,9,12500,1,-126.018,-115.048,5.69453,-126.018,-1.35596
block_1,8250,9,12501,1,-145.641,-133.151,5.2864,-145.641,-1.42116
block_1,8251,9,12502,1,-145.445,-132.785,5.32199,-145.445,-1.42116
block_1,8252,9,12503,1,-125.846,-114.729,5.73261,-125.846,-1.35596
block_1,8253,9,12504,1,-125.673,-114.408,5.7707,-125.673,-1.35597
block_1,8254,9,12505,1,-145.246,-132.418,5.35759,-145.246,-1.42116
block_1,8255,9,12506,1,-145.047,-132.047,5.39318,-145.047,-1.42117
block_1,8256,9,12507,1,-12.8532,-8.62141,6.94777,-9.48891,-0.900892
block_1,8257,9,12508,1,-12.8731,-8.59669,6.99331,-9.4756,-0.900895
block_1,8258,9,12509,1,-29.0153,-26.1937,6.89378,-28.8189,-0.981191
block_1,8259,9,12510,1,-28.9758,-26.119,6.93897,-28.7787,-0.981194
block_1,8260,9,12511,1,-12.893,-8.57182,7.03886,-9.4622,-0.900898
block_1,8261,9,12512,1,-12.9129,-8.54678,7.0844,-9.44872,-0.900901
block_1,8262,9,12513,1,-28.936,-26.0437,6.98415,-28.7381,-0.981198
block_1,8263,9,12514,1,-28.896,-25.9679,7.02935,-28.6973,-0.981201
block_1,8264,9,12515,1,-48.15,-43.7671,6.78545,-48.15,-1.06055
block_1,8265,9,12516,1,-48.0828,-43.6423,6.82993,-48.0828,-1.06055
block_1,8266,9,12517,1,-67.4829,-61.3423,6.62278,-67.4829,-1.13834
block_1,8267,9,12518,1,-67.3886,-61.1674,6.6662,-67.3886,-1.13834
block_1,8268,9,12519,1,-48.0151,-43.5166,6.87441,-48.0151,-1.06056
block_1,8269,9,12520,1,-47.9469,-43.3902,6.91889,-47.9469,-1.06056
block_1,8270,9,12521,1,-67.2938,-60.9914,6.70961,-67.2938,-1.13834
block_1,8271,9,12522,1,-67.1984,-60.8142,6.75303,-67.1984,-1.13835
block_1,8272,9,12523,1,-12.9328,-8.52158,7.12994,-9.43514,-0.900904
block_1,8273,9,12524,1,-12.9528,-8.49621,7.17549,-9.42148,-0.900907
block_1,8274,9,12525,1,-28.8557,-25.8917,7.07454,-28.6562,-0.981205
block_1,8275,9,12526,1,-28.8152,-25.815,7.11973,-28.6149,-0.981208
block_1,8276,9,12527,1,-12.9728,-8.47069,7.22103,-9.40774,-0.900911
block_1,8277,9,12528,1,-12.9928,-8.445,7.26658,-9.3939,-0.900914
block_1,8278,9,12529,1,-28.7743,-25.7378,7.16492,-28.5733,-0.981211
block_1,8279,9,12530,1,-28.7333,-25.66,7.21011,-28.5314,-0.981215
block_1,8280,9,12531,1,-47.8784,-43.2629,6.96337,-47.8784,-1.06056
block_1,8281,9,12532,1,-47.8094,-43.1348,7.00785,-47.8094,-1.06057
block_1,8282,9,12533,1,-67.1023,-60.6359,6.79644,-67.1023,-1.13835
block_1,8283,9,12534,1,-67.0056,-60.4564,6.83986,-67.0056,-1.13836
block_1,8284,9,12535,1,-47.7399,-43.0059,7.05233,-47.7399,-1.06057
block_1,8285,9,12536,1,-47.67,-42.8762,7.09681,-47.67,-1.06057
block_1,8286,9,12537,1,-66.9083,-60.2758,6.88327,-66.9083,-1.13836
block_1,8287,9,12538,1,-66.8104,-60.094,6.92669,-66.8104,-1.13836
block_1,8288,9,12539,1,-86.8182,-78.9199,6.40578,-86.8182,-1.21392
block_1,8289,9,12540,1,-86.697,-78.695,6.44778,-86.697,-1.21393
block_1,8290,9,12541,1,-106.157,-96.5007,6.13445,-106.157,-1.28668
block_1,8291,9,12542,1,-106.009,-96.2257,6.17467,-106.009,-1.28668
block_1,8292,9,12543,1,-86.575,-78.4685,6.48977,-86.575,-1.21393
block_1,8293,9,12544,1,-86.4523,-78.2406,6.53176,-86.4523,-1.21393
block_1,8294,9,12545,1,-105.859,-95.9489,6.21488,-105.859,-1.28669
block_1,8295,9,12546,1,-105.709,-95.6703,6.2551,-105.709,-1.28669
block_1,8296,9,12547,1,-125.499,-114.085,5.80878,-125.499,-1.35597
block_1,8297,9,12548,1,-125.324,-113.76,5.84686,-125.324,-1.35597
block_1,8298,9,12549,1,-144.846,-131.675,5.42877,-144.846,-1.42117
block_1,8299,9,12550,1,-144.644,-131.3,5.46437,-144.644,-1.42118
block_1,8300,9,12551,1,-125.148,-113.433,5.88495,-125.148,-1.35598
block_1,8301,9,12552,1,-124.97,-113.104,5.92303,-124.97,-1.35598
block_1,8302,9,12553,1,-144.441,-130.922,5.49996,-144.441,-1.42118
block_1,8303,9,12554,1,-144.236,-130.542,5.53556,-144.236,-1.42119
block_1,8304,9,12555,1,-86.3287,-78.0113,6.57376,-86.3287,-1.21394
block_1,8305,9,12556,1,-86.2043,-77.7804,6.61575,-86.2043,-1.21394
block_1,8306,9,12557,1,-105.558,-95.3899,6.29531,-105.558,-1.28669
block_1,8307,9,12558,1,-105.406,-95.1077,6.33553,-105.406,-1.2867
block_1,8308,9,12559,1,-86.0792,-77.5481,6.65775,-86.0792,-1.21395
block_1,8309,9,12560,1,-85.9533,-77.3144,6.69974,-85.9533,-1.21395
block_1,8310,9,12561,1,-105.253,-94.8237,6.37575,-105.253,-1.2867
block_1,8311,9,12562,1,-105.099,-94.5379,6.41597,-105.099,-1.28671
block_1,8312,9,12563,1,-124.792,-112.772,5.96111,-124.792,-1.35599
block_1,8313,9,12564,1,-124.612,-112.439,5.9992,-124.612,-1.35599
block_1,8314,9,12565,1,-144.03,-130.16,5.57115,-144.03,-1.42119
block_1,8315,9,12566,1,-143.822,-129.775,5.60675,-143.822,-1.4212
block_1,8316,9,12567,1,-124.431,-112.103,6.03728,-124.431,-1.356
block_1,8317,9,12568,1,-124.249,-111.765,6.07536,-124.249,-1.356
block_1,8318,9,12569,1,-143.614,-129.387,5.64234,-143.614,-1.4212
block_1,8319,9,12570,1,-143.404,-128.997,5.67794,-143.404,-1.4212
block_1,8320,9,12571,1,-165.977,-152.571,4.73244,-165.977,-1.48162
block_1,8321,9,12572,1,-165.76,-152.168,4.76519,-165.76,-1.48163
block_1,8322,9,12573,1,-185.545,-170.56,4.26936,-185.545,-1.53675
block_1,8323,9,12574,1,-185.302,-170.11,4.29891,-185.302,-1.53676
block_1,8324,9,12575,1,-165.542,-151.762,4.79794,-165.542,-1.48163
block_1,8325,9,12576,1,-165.321,-151.354,4.83069,-165.321,-1.48163
block_1,8326,9,12577,1,-185.058,-169.656,4.32846,-185.058,-1.53676
block_1,8327,9,12578,1,-184.812,-169.2,4.35801,-184.812,-1.53676
block_1,8328,9,12579,1,-205.12,-188.556,3.7548,-205.12,-1.5859
block_1,8329,9,12580,1,-204.851,-188.059,3.78079,-204.851,-1.58591
block_1,8330,9,12581,1,-224.701,-206.56,3.18875,-224.701,-1.62844
block_1,8331,9,12582,1,-224.408,-206.015,3.21083,-224.408,-1.62845
block_1,8332,9,12583,1,-204.581,-187.557,3.80679,-204.581,-1.58591
block_1,8333,9,12584,1,-204.309,-187.053,3.83278,-204.309,-1.58591
block_1,8334,9,12585,1,-224.112,-205.466,3.23291,-224.112,-1.62845
block_1,8335,9,12586,1,-223.814,-204.913,3.25499,-223.814,-1.62845
block_1,8336,9,12587,1,-165.1,-150.942,4.86344,-165.1,-1.48164
block_1,8337,9,12588,1,-164.877,-150.528,4.89618,-164.877,-1.48164
block_1,8338,9,12589,1,-184.564,-168.74,4.38756,-184.564,-1.53677
block_1,8339,9,12590,1,-184.315,-168.277,4.41711,-184.315,-1.53677
block_1,8340,9,12591,1,-164.652,-150.111,4.92893,-164.652,-1.48165
block_1,8341,9,12592,1,-164.426,-149.692,4.96168,-164.426,-1.48165
block_1,8342,9,12593,1,-184.064,-167.811,4.44666,-184.064,-1.53678
block_1,8343,9,12594,1,-183.811,-167.342,4.47621,-183.811,-1.53678
block_1,8344,9,12595,1,-204.035,-186.544,3.85877,-204.035,-1.58592
block_1,8345,9,12596,1,-203.76,-186.033,3.88477,-203.76,-1.58592
block_1,8346,9,12597,1,-223.514,-204.356,3.27707,-223.514,-1.62846
block_1,8347,9,12598,1,-223.212,-203.796,3.29915,-223.212,-1.62846
block_1,8348,9,12599,1,-203.482,-185.518,3.91076,-203.482,-1.58593
block_1,8349,9,12600,1,-203.203,-184.999,3.93675,-203.203,-1.58593
block_1,8350,9,12601,1,-222.908,-203.232,3.32124,-222.908,-1.62847
block_1,8351,9,12602,1,-222.602,-202.664,3.34332,-222.602,-1.62847
block_1,8352,9,12603,1,-244.292,-224.572,2.5712,-244.292,-1.66374
block_1,8353,9,12604,1,-243.972,-223.979,2.58902,-243.972,-1.66375
block_1,8354,9,12605,1,-263.891,-242.592,1.90217,-263.891,-1.69117
block_1,8355,9,12606,1,-263.546,-241.952,1.91536,-263.546,-1.69117
block_1,8356,9,12607,1,-243.651,-223.382,2.60683,-243.651,-1.66375
block_1,8357,9,12608,1,-243.327,-222.781,2.62465,-243.327,-1.66375
block_1,8358,9,12609,1,-263.198,-241.307,1.92855,-263.198,-1.69118
block_1,8359,9,12610,1,-262.849,-240.658,1.94175,-262.849,-1.69118
block_1,8360,9,12611,1,-283.499,-260.622,1.18165,-283.499,-1.7101
block_1,8361,9,12612,1,-283.129,-259.934,1.18986,-283.129,-1.7101
block_1,8362,9,12613,1,-303.118,-278.662,0.409641,-303.118,-1.7199
block_1,8363,9,12614,1,-302.722,-277.927,0.41252,-302.722,-1.7199
block_1,8364,9,12615,1,-282.756,-259.242,1.19808,-282.756,-1.71011
block_1,8365,9,12616,1,-282.38,-258.545,1.20629,-282.38,-1.71011
block_1,8366,9,12617,1,-302.323,-277.187,0.415399,-302.323,-1.71991
block_1,8367,9,12618,1,-301.922,-276.442,0.418277,-301.922,-1.71991
block_1,8368,9,12619,1,-243.001,-222.176,2.64246,-243.001,-1.66376
block_1,8369,9,12620,1,-242.673,-221.567,2.66027,-242.673,-1.66376
block_1,8370,9,12621,1,-262.497,-240.005,1.95494,-262.497,-1.69119
block_1,8371,9,12622,1,-262.142,-239.347,1.96813,-262.142,-1.69119
block_1,8372,9,12623,1,-242.342,-220.954,2.67809,-242.342,-1.66377
block_1,8373,9,12624,1,-242.01,-220.336,2.6959,-242.01,-1.66377
block_1,8374,9,12625,1,-261.785,-238.685,1.98132,-261.785,-1.6912
block_1,8375,9,12626,1,-261.426,-238.018,1.99451,-261.426,-1.6912
block_1,8376,9,12627,1,-282.002,-257.843,1.2145,-282.002,-1.71012
block_1,8377,9,12628,1,-281.621,-257.136,1.22271,-281.621,-1.71012
block_1,8378,9,12629,1,-301.517,-275.692,0.421154,-301.517,-1.71991
block_1,8379,9,12630,1,-301.11,-274.936,0.424031,-301.11,-1.71992
block_1,8380,9,12631,1,-281.238,-256.425,1.23092,-281.238,-1.71012
block_1,8381,9,12632,1,-280.852,-255.709,1.23914,-280.852,-1.71013
block_1,8382,9,12633,1,-300.701,-274.176,0.426907,-300.701,-1.71992
block_1,8383,9,12634,1,-300.288,-273.41,0.429783,-300.288,-1.71993
block_1,8384,9,12635,1,-164.198,-149.269,4.99443,-164.198,-1.48166
block_1,8385,9,12636,1,-163.969,-148.844,5.02718,-163.969,-1.48166
block_1,8386,9,12637,1,-183.557,-166.87,4.50576,-183.557,-1.53679
block_1,8387,9,12638,1,-183.301,-166.395,4.53531,-183.301,-1.53679
block_1,8388,9,12639,1,-163.739,-148.416,5.05993,-163.739,-1.48166
block_1,8389,9,12640,1,-163.507,-147.985,5.09268,-163.507,-1.48167
block_1,8390,9,12641,1,-183.043,-165.916,4.56485,-183.043,-1.5368
block_1,8391,9,12642,1,-182.784,-165.435,4.5944,-182.784,-1.5368
block_1,8392,9,12643,1,-202.922,-184.477,3.96274,-202.922,-1.58594
block_1,8393,9,12644,1,-202.639,-183.952,3.98874,-202.639,-1.58594
block_1,8394,9,12645,1,-222.294,-202.092,3.3654,-222.294,-1.62848
block_1,8395,9,12646,1,-221.984,-201.517,3.38748,-221.984,-1.62848
block_1,8396,9,12647,1,-202.354,-183.423,4.01473,-202.354,-1.58595
block_1,8397,9,12648,1,-202.067,-182.891,4.04072,-202.067,-1.58595
block_1,8398,9,12649,1,-221.672,-200.938,3.40956,-221.672,-1.62849
block_1,8399,9,12650,1,-221.358,-200.355,3.43164,-221.358,-1.62849
block_1,8400,9,12651,1,-163.273,-147.552,5.12543,-163.273,-1.48167
block_1,8401,9,12652,1,-163.038,-147.116,5.15818,-163.038,-1.48168
block_1,8402,9,12653,1,-182.523,-164.95,4.62395,-182.523,-1.5368
block_1,8403,9,12654,1,-182.26,-164.463,4.6535,-182.26,-1.53681
block_1,8404,9,12655,1,-162.802,-146.677,5.19093,-162.802,-1.48168
block_1,8405,9,12656,1,-162.564,-146.235,5.22368,-162.564,-1.48169
block_1,8406,9,12657,1,-181.996,-163.972,4.68305,-181.996,-1.53681
block_1,8407,9,12658,1,-181.729,-163.478,4.7126,-181.729,-1.53682
block_1,8408,9,12659,1,-201.779,-182.356,4.06672,-201.779,-1.58596
block_1,8409,9,12660,1,-201.488,-181.816,4.09271,-201.488,-1.58596
block_1,8410,9,12661,1,-221.042,-199.768,3.45372,-221.042,-1.6285
block_1,8411,9,12662,1,-220.724,-199.178,3.4758,-220.724,-1.6285
block_1,8412,9,12663,1,-201.196,-181.274,4.1187,-201.196,-1.58596
block_1,8413,9,12664,1,-200.902,-180.728,4.14469,-200.902,-1.58597
block_1,8414,9,12665,1,-220.404,-198.584,3.49788,-220.404,-1.6285
block_1,8415,9,12666,1,-220.082,-197.986,3.51996,-220.082,-1.62851
block_1,8416,9,12667,1,-241.675,-219.715,2.71372,-241.675,-1.66378
block_1,8417,9,12668,1,-241.338,-219.09,2.73153,-241.338,-1.66378
block_1,8418,9,12669,1,-261.065,-237.347,2.0077,-261.065,-1.6912
block_1,8419,9,12670,1,-260.701,-236.671,2.02089,-260.701,-1.69121
block_1,8420,9,12671,1,-240.999,-218.46,2.74934,-240.999,-1.66379
block_1,8421,9,12672,1,-240.658,-217.827,2.76715,-240.658,-1.66379
block_1,8422,9,12673,1,-260.334,-235.991,2.03408,-260.334,-1.69121
block_1,8423,9,12674,1,-259.966,-235.307,2.04727,-259.966,-1.69122
block_1,8424,9,12675,1,-280.464,-254.988,1.24735,-280.464,-1.71013
block_1,8425,9,12676,1,-280.073,-254.263,1.25556,-280.073,-1.71014
block_1,8426,9,12677,1,-299.873,-272.64,0.432658,-299.873,-1.71993
block_1,8427,9,12678,1,-299.455,-271.864,0.435533,-299.455,-1.71993
block_1,8428,9,12679,1,-279.679,-253.532,1.26377,-279.679,-1.71014
block_1,8429,9,12680,1,-279.283,-252.797,1.27197,-279.283,-1.71015
block_1,8430,9,12681,1,-299.035,-271.084,0.438407,-299.035,-1.71994
block_1,8431,9,12682,1,-298.611,-270.298,0.441281,-298.611,-1.71994
block_1,8432,9,12683,1,-240.314,-217.189,2.78497,-240.314,-1.66379
block_1,8433,9,12684,1,-239.968,-216.547,2.80278,-239.968,-1.6638
block_1,8434,9,12685,1,-259.595,-234.618,2.06045,-259.595,-1.69122
block_1,8435,9,12686,1,-259.221,-233.925,2.07364,-259.221,-1.69123
block_1,8436,9,12687,1,-239.62,-215.901,2.82059,-239.62,-1.6638
block_1,8437,9,12688,1,-239.27,-215.251,2.8384,-239.27,-1.66381
block_1,8438,9,12689,1,-258.846,-233.228,2.08683,-258.846,-1.69123
block_1,8439,9,12690,1,-258.467,-232.526,2.10002,-258.467,-1.69124
block_1,8440,9,12691,1,-278.885,-252.058,1.28018,-278.885,-1.71015
block_1,8441,9,12692,1,-278.484,-251.313,1.28839,-278.484,-1.71015
block_1,8442,9,12693,1,-298.185,-269.507,0.444154,-298.185,-1.71995
block_1,8443,9,12694,1,-297.757,-268.711,0.447027,-297.757,-1.71995
block_1,8444,9,12695,1,-278.08,-250.564,1.2966,-278.08,-1.71016
block_1,8445,9,12696,1,-277.674,-249.81,1.30481,-277.674,-1.71016
block_1,8446,9,12697,1,-297.325,-267.91,0.4499,-297.325,-1.71996
block_1,8447,9,12698,1,-296.891,-267.104,0.452772,-296.891,-1.71996
block_1,8448,9,12699,1,-13.0128,-8.41916,7.31213,-9.37998,-0.900917
block_1,8449,9,12700,1,-13.0329,-8.39315,7.35767,-9.36597,-0.90092
block_1,8450,9,12701,1,-28.692,-25.5819,7.2553,-28.4893,-0.981218
block_1,8451,9,12702,1,-28.6504,-25.5032,7.30049,-28.4469,-0.981222
block_1,8452,9,12703,1,-13.0529,-8.36698,7.40322,-9.35188,-0.900923
block_1,8453,9,12704,1,-13.073,-8.34064,7.44877,-9.3377,-0.900927
block_1,8454,9,12705,1,-28.6086,-25.424,7.34569,-28.4043,-0.981225
block_1,8455,9,12706,1,-28.5665,-25.3443,7.39088,-28.3614,-0.981229
block_1,8456,9,12707,1,-47.5997,-42.7456,7.1413,-47.5997,-1.06058
block_1,8457,9,12708,1,-47.529,-42.6142,7.18578,-47.529,-1.06058
block_1,8458,9,12709,1,-66.7119,-59.9111,6.97011,-66.7119,-1.13837
block_1,8459,9,12710,1,-66.6128,-59.7271,7.01352,-66.6128,-1.13837
block_1,8460,9,12711,1,-47.4578,-42.4821,7.23026,-47.4578,-1.06059
block_1,8461,9,12712,1,-47.3861,-42.3491,7.27474,-47.3861,-1.06059
block_1,8462,9,12713,1,-66.513,-59.5419,7.05694,-66.513,-1.13837
block_1,8463,9,12714,1,-66.4126,-59.3556,7.10036,-66.4126,-1.13838
block_1,8464,9,12715,1,-13.0931,-8.31415,7.49431,-9.32343,-0.90093
block_1,8465,9,12716,1,-13.1133,-8.28749,7.53986,-9.30907,-0.900933
block_1,8466,9,12717,1,-28.5242,-25.2642,7.43607,-28.3182,-0.981232
block_1,8467,9,12718,1,-28.4816,-25.1835,7.48127,-28.2748,-0.981236
block_1,8468,9,12719,1,-13.1334,-8.26067,7.58541,-9.29463,-0.900937
block_1,8469,9,12720,1,-13.1535,-8.23369,7.63096,-9.2801,-0.90094
block_1,8470,9,12721,1,-28.4388,-25.1024,7.52646,-28.2311,-0.981239
block_1,8471,9,12722,1,-28.3957,-25.0208,7.57166,-28.1871,-0.981243
block_1,8472,9,12723,1,-47.314,-42.2153,7.31923,-47.314,-1.06059
block_1,8473,9,12724,1,-47.2415,-42.0806,7.36371,-47.2415,-1.0606
block_1,8474,9,12725,1,-66.3116,-59.1681,7.14378,-66.3116,-1.13838
block_1,8475,9,12726,1,-66.21,-58.9795,7.18719,-66.21,-1.13839
block_1,8476,9,12727,1,-47.1686,-41.9452,7.4082,-47.1686,-1.0606
block_1,8477,9,12728,1,-47.0952,-41.8089,7.45268,-47.0952,-1.0606
block_1,8478,9,12729,1,-66.1078,-58.7898,7.23061,-66.1078,-1.13839
block_1,8479,9,12730,1,-66.005,-58.5989,7.27403,-66.005,-1.13839
block_1,8480,9,12731,1,-85.8265,-77.0791,6.74174,-85.8265,-1.21395
block_1,8481,9,12732,1,-85.699,-76.8424,6.78373,-85.699,-1.21396
block_1,8482,9,12733,1,-104.944,-94.2503,6.45618,-104.944,-1.28671
block_1,8483,9,12734,1,-104.788,-93.9609,6.4964,-104.788,-1.28671
block_1,8484,9,12735,1,-85.5707,-76.6042,6.82573,-85.5707,-1.21396
block_1,8485,9,12736,1,-85.4416,-76.3646,6.86772,-85.4416,-1.21397
block_1,8486,9,12737,1,-104.632,-93.6697,6.53662,-104.632,-1.28672
block_1,8487,9,12738,1,-104.474,-93.3768,6.57684,-104.474,-1.28672
block_1,8488,9,12739,1,-124.066,-111.425,6.11345,-124.066,-1.35601
block_1,8489,9,12740,1,-123.882,-111.083,6.15153,-123.882,-1.35601
block_1,8490,9,12741,1,-143.192,-128.605,5.71353,-143.192,-1.42121
block_1,8491,9,12742,1,-142.98,-128.21,5.74913,-142.98,-1.42121
block_1,8492,9,12743,1,-123.696,-110.739,6.18962,-123.696,-1.35601
block_1,8493,9,12744,1,-123.51,-110.393,6.2277,-123.51,-1.35602
block_1,8494,9,12745,1,-142.766,-127.813,5.78472,-142.766,-1.42122
block_1,8495,9,12746,1,-142.551,-127.413,5.82032,-142.551,-1.42122
block_1,8496,9,12747,1,-85.3117,-76.1235,6.90972,-85.3117,-1.21397
block_1,8497,9,12748,1,-85.181,-75.8809,6.95171,-85.181,-1.21398
block_1,8498,9,12749,1,-104.315,-93.082,6.61706,-104.315,-1.28673
block_1,8499,9,12750,1,-104.155,-92.7854,6.65727,-104.155,-1.28673
block_1,8500,9,12751,1,-85.0496,-75.6368,6.99371,-85.0496,-1.21398
block_1,8501,9,12752,1,-84.9173,-75.3913,7.03571,-84.9173,-1.21398
block_1,8502,9,12753,1,-103.995,-92.487,6.69749,-103.995,-1.28674
block_1,8503,9,12754,1,-103.833,-92.1869,6.73771,-103.833,-1.28674
block_1,8504,9,12755,1,-123.322,-110.044,6.26579,-123.322,-1.35602
block_1,8505,9,12756,1,-123.133,-109.694,6.30387,-123.133,-1.35603
block_1,8506,9,12757,1,-142.334,-127.011,5.85591,-142.334,-1.42123
block_1,8507,9,12758,1,-142.116,-126.607,5.89151,-142.116,-1.42123
block_1,8508,9,12759,1,-122.943,-109.341,6.34196,-122.943,-1.35603
block_1,8509,9,12760,1,-122.752,-108.986,6.38004,-122.752,-1.35604
block_1,8510,9,12761,1,-141.897,-126.2,5.9271,-141.897,-1.42124
block_1,8511,9,12762,1,-141.676,-125.79,5.9627,-141.676,-1.42124
block_1,8512,9,12763,1,-13.1737,-8.20655,7.67651,-9.26548,-0.900943
block_1,8513,9,12764,1,-13.1939,-8.17924,7.72206,-9.25078,-0.900947
block_1,8514,9,12765,1,-28.3523,-24.9387,7.61685,-28.1429,-0.981247
block_1,8515,9,12766,1,-28.3087,-24.8561,7.66204,-28.0984,-0.98125
block_1,8516,9,12767,1,-13.2141,-8.15178,7.7676,-9.23599,-0.90095
block_1,8517,9,12768,1,-13.2343,-8.12415,7.81315,-9.22111,-0.900954
block_1,8518,9,12769,1,-28.2649,-24.773,7.70724,-28.0536,-0.981254
block_1,8519,9,12770,1,-28.2208,-24.6894,7.75244,-28.0086,-0.981258
block_1,8520,9,12771,1,-47.0213,-41.6719,7.49716,-47.0213,-1.06061
block_1,8521,9,12772,1,-46.9471,-41.534,7.54165,-46.9471,-1.06061
block_1,8522,9,12773,1,-65.9016,-58.4068,7.31745,-65.9016,-1.1384
block_1,8523,9,12774,1,-65.7975,-58.2137,7.36087,-65.7975,-1.1384
block_1,8524,9,12775,1,-46.8724,-41.3953,7.58613,-46.8724,-1.06062
block_1,8525,9,12776,1,-46.7972,-41.2558,7.63062,-46.7972,-1.06062
block_1,8526,9,12777,1,-65.6928,-58.0193,7.40429,-65.6928,-1.13841
block_1,8527,9,12778,1,-65.5875,-57.8239,7.44771,-65.5875,-1.13841
block_1,8528,9,12779,1,-13.2545,-8.09636,7.8587,-9.20614,-0.900957
block_1,8529,9,12780,1,-13.2748,-8.06841,7.90426,-9.19109,-0.90096
block_1,8530,9,12781,1,-28.1764,-24.6054,7.79763,-27.9633,-0.981261
block_1,8531,9,12782,1,-28.1318,-24.5208,7.84283,-27.9178,-0.981265
block_1,8532,9,12783,1,-13.295,-8.04029,7.94981,-9.17595,-0.900964
block_1,8533,9,12784,1,-13.3153,-8.01202,7.99536,-9.16072,-0.900967
block_1,8534,9,12785,1,-28.087,-24.4358,7.88803,-27.872,-0.981269
block_1,8535,9,12786,1,-28.0419,-24.3502,7.93322,-27.8259,-0.981273
block_1,8536,9,12787,1,-46.7216,-41.1154,7.67511,-46.7216,-1.06062
block_1,8537,9,12788,1,-46.6456,-40.9743,7.71959,-46.6456,-1.06063
block_1,8538,9,12789,1,-65.4816,-57.6273,7.49113,-65.4816,-1.13842
block_1,8539,9,12790,1,-65.3751,-57.4295,7.53455,-65.3751,-1.13842
block_1,8540,9,12791,1,-46.5691,-40.8323,7.76408,-46.5691,-1.06063
block_1,8541,9,12792,1,-46.4922,-40.6895,7.80857,-46.4922,-1.06064
block_1,8542,9,12793,1,-65.268,-57.2306,7.57797,-65.268,-1.13842
block_1,8543,9,12794,1,-65.1603,-57.0306,7.62139,-65.1603,-1.13843
block_1,8544,9,12795,1,-84.7843,-75.1443,7.07771,-84.7843,-1.21399
block_1,8545,9,12796,1,-84.6504,-74.8958,7.1197,-84.6504,-1.21399
block_1,8546,9,12797,1,-103.67,-91.8849,6.77793,-103.67,-1.28675
block_1,8547,9,12798,1,-103.507,-91.5811,6.81815,-103.507,-1.28675
block_1,8548,9,12799,1,-84.5158,-74.6459,7.1617,-84.5158,-1.214
block_1,8549,9,12800,1,-84.3804,-74.3945,7.2037,-84.3804,-1.214
block_1,8550,9,12801,1,-103.342,-91.2756,6.85837,-103.342,-1.28675
block_1,8551,9,12802,1,-103.176,-90.9682,6.89859,-103.176,-1.28676
block_1,8552,9,12803,1,-122.56,-108.629,6.41813,-122.56,-1.35604
block_1,8553,9,12804,1,-122.367,-108.27,6.45621,-122.367,-1.35605
block_1,8554,9,12805,1,-141.454,-125.379,5.9983,-141.454,-1.42125
block_1,8555,9,12806,1,-141.231,-124.964,6.03389,-141.231,-1.42125
block_1,8556,9,12807,1,-122.172,-107.909,6.4943,-122.172,-1.35605
block_1,8557,9,12808,1,-121.976,-107.546,6.53239,-121.976,-1.35606
block_1,8558,9,12809,1,-141.007,-124.547,6.06949,-141.007,-1.42126
block_1,8559,9,12810,1,-140.781,-124.128,6.10509,-140.781,-1.42126
block_1,8560,9,12811,1,-84.2442,-74.1416,7.2457,-84.2442,-1.21401
block_1,8561,9,12812,1,-84.1072,-73.8872,7.28769,-84.1072,-1.21401
block_1,8562,9,12813,1,-103.01,-90.6591,6.93881,-103.01,-1.28676
block_1,8563,9,12814,1,-102.842,-90.3481,6.97903,-102.842,-1.28677
block_1,8564,9,12815,1,-83.9694,-73.6314,7.32969,-83.9694,-1.21401
block_1,8565,9,12816,1,-83.8308,-73.3741,7.37169,-83.8308,-1.21402
block_1,8566,9,12817,1,-102.674,-90.0354,7.01925,-102.674,-1.28677
block_1,8567,9,12818,1,-102.504,-89.7208,7.05947,-102.504,-1.28678
block_1,8568,9,12819,1,-121.779,-107.18,6.57047,-121.779,-1.35606
block_1,8569,9,12820,1,-121.581,-106.813,6.60856,-121.581,-1.35607
block_1,8570,9,12821,1,-140.554,-123.706,6.14068,-140.554,-1.42127
block_1,8571,9,12822,1,-140.325,-123.282,6.17628,-140.325,-1.42127
block_1,8572,9,12823,1,-121.382,-106.443,6.64665,-121.382,-1.35607
block_1,8573,9,12824,1,-121.182,-106.071,6.68473,-121.182,-1.35608
block_1,8574,9,12825,1,-140.095,-122.856,6.21188,-140.095,-1.42128
block_1,8575,9,12826,1,-139.864,-122.427,6.24747,-139.864,-1.42128
block_1,8576,9,12827,1,-162.324,-145.79,5.25643,-162.324,-1.48169
block_1,8577,9,12828,1,-162.083,-145.343,5.28918,-162.083,-1.4817
block_1,8578,9,12829,1,-181.462,-162.981,4.74215,-181.462,-1.53682
block_1,8579,9,12830,1,-181.192,-162.481,4.7717,-181.192,-1.53683
block_1,8580,9,12831,1,-161.841,-144.892,5.32193,-161.841,-1.4817
block_1,8581,9,12832,1,-161.597,-144.439,5.35468,-161.597,-1.48171
block_1,8582,9,12833,1,-180.921,-161.978,4.80125,-180.921,-1.53683
block_1,8583,9,12834,1,-180.649,-161.471,4.8308,-180.649,-1.53684
block_1,8584,9,12835,1,-200.606,-180.179,4.17069,-200.606,-1.58597
block_1,8585,9,12836,1,-200.308,-179.626,4.19668,-200.308,-1.58598
block_1,8586,9,12837,1,-219.758,-197.384,3.54204,-219.758,-1.62851
block_1,8587,9,12838,1,-219.432,-196.778,3.56412,-219.432,-1.62852
block_1,8588,9,12839,1,-200.009,-179.07,4.22267,-200.009,-1.58598
block_1,8589,9,12840,1,-199.707,-178.51,4.24866,-199.707,-1.58599
block_1,8590,9,12841,1,-219.104,-196.169,3.5862,-219.104,-1.62852
block_1,8591,9,12842,1,-218.773,-195.556,3.60828,-218.773,-1.62853
block_1,8592,9,12843,1,-161.351,-143.984,5.38743,-161.351,-1.48171
block_1,8593,9,12844,1,-161.104,-143.525,5.42018,-161.104,-1.48172
block_1,8594,9,12845,1,-180.374,-160.962,4.86035,-180.374,-1.53684
block_1,8595,9,12846,1,-180.098,-160.45,4.8899,-180.098,-1.53685
block_1,8596,9,12847,1,-160.856,-143.064,5.45293,-160.856,-1.48172
block_1,8597,9,12848,1,-160.606,-142.6,5.48568,-160.606,-1.48173
block_1,8598,9,12849,1,-179.82,-159.934,4.91945,-179.82,-1.53685
block_1,8599,9,12850,1,-179.541,-159.415,4.949,-179.541,-1.53686
block_1,8600,9,12851,1,-199.404,-177.947,4.27466,-199.404,-1.58599
block_1,8601,9,12852,1,-199.099,-177.381,4.30065,-199.099,-1.586
block_1,8602,9,12853,1,-218.441,-194.94,3.63036,-218.441,-1.62853
block_1,8603,9,12854,1,-218.107,-194.319,3.65244,-218.107,-1.62854
block_1,8604,9,12855,1,-198.792,-176.811,4.32664,-198.792,-1.586
block_1,8605,9,12856,1,-198.483,-176.237,4.35263,-198.483,-1.58601
block_1,8606,9,12857,1,-217.771,-193.695,3.67452,-217.771,-1.62854
block_1,8607,9,12858,1,-217.432,-193.067,3.6966,-217.432,-1.62855
block_1,8608,9,12859,1,-238.918,-214.597,2.85621,-238.918,-1.66381
block_1,8609,9,12860,1,-238.563,-213.939,2.87403,-238.563,-1.66382
block_1,8610,9,12861,1,-258.087,-231.819,2.11321,-258.087,-1.69124
block_1,8611,9,12862,1,-257.704,-231.109,2.12639,-257.704,-1.69125
block_1,8612,9,12863,1,-238.207,-213.277,2.89184,-238.207,-1.66382
block_1,8613,9,12864,1,-237.848,-212.611,2.90965,-237.848,-1.66383
block_1,8614,9,12865,1,-257.319,-230.393,2.13958,-257.319,-1.69125
block_1,8615,9,12866,1,-256.931,-229.674,2.15277,-256.931,-1.69125
block_1,8616,9,12867,1,-277.265,-249.051,1.31302,-277.265,-1.71017
block_1,8617,9,12868,1,-276.854,-248.288,1.32122,-276.854,-1.71017
block_1,8618,9,12869,1,-296.454,-266.293,0.455643,-296.454,-1.71996
block_1,8619,9,12870,1,-296.014,-265.477,0.458514,-296.014,-1.71997
block_1,8620,9,12871,1,-276.44,-247.519,1.32943,-276.44,-1.71018
block_1,8621,9,12872,1,-276.024,-246.746,1.33764,-276.024,-1.71018
block_1,8622,9,12873,1,-295.572,-264.656,0.461385,-295.572,-1.71997
block_1,8623,9,12874,1,-295.127,-263.829,0.464255,-295.127,-1.71998
block_1,8624,9,12875,1,-237.487,-211.94,2.92746,-237.487,-1.66383
block_1,8625,9,12876,1,-237.123,-211.266,2.94527,-237.123,-1.66384
block_1,8626,9,12877,1,-256.541,-228.95,2.16595,-256.541,-1.69126
block_1,8627,9,12878,1,-256.149,-228.221,2.17914,-256.149,-1.69126
block_1,8628,9,12879,1,-236.758,-210.587,2.96308,-236.758,-1.66384
block_1,8629,9,12880,1,-236.39,-209.905,2.98089,-236.39,-1.66385
block_1,8630,9,12881,1,-255.754,-227.488,2.19232,-255.754,-1.69127
block_1,8631,9,12882,1,-255.357,-226.751,2.20551,-255.357,-1.69127
block_1,8632,9,12883,1,-275.605,-245.969,1.34584,-275.605,-1.71019
block_1,8633,9,12884,1,-275.183,-245.186,1.35405,-275.183,-1.71019
block_1,8634,9,12885,1,-294.679,-262.998,0.467124,-294.679,-1.71998
block_1,8635,9,12886,1,-294.228,-262.162,0.469993,-294.228,-1.71999
block_1,8636,9,12887,1,-274.759,-244.399,1.36225,-274.759,-1.71019
block_1,8637,9,12888,1,-274.333,-243.607,1.37046,-274.333,-1.7102
block_1,8638,9,12889,1,-293.775,-261.32,0.472862,-293.775,-1.71999
block_1,8639,9,12890,1,-293.319,-260.474,0.475731,-293.319,-1.71999
block_1,8640,9,12891,1,-160.354,-142.133,5.51844,-160.354,-1.48173
block_1,8641,9,12892,1,-160.101,-141.663,5.55119,-160.101,-1.48174
block_1,8642,9,12893,1,-179.26,-158.893,4.97855,-179.26,-1.53686
block_1,8643,9,12894,1,-178.977,-158.368,5.0081,-178.977,-1.53687
block_1,8644,9,12895,1,-159.847,-141.191,5.58394,-159.847,-1.48174
block_1,8645,9,12896,1,-159.591,-140.716,5.61669,-159.591,-1.48175
block_1,8646,9,12897,1,-178.693,-157.84,5.03764,-178.693,-1.53687
block_1,8647,9,12898,1,-178.406,-157.309,5.06719,-178.406,-1.53688
block_1,8648,9,12899,1,-198.172,-175.661,4.37863,-198.172,-1.58601
block_1,8649,9,12900,1,-197.86,-175.08,4.40462,-197.86,-1.58602
block_1,8650,9,12901,1,-217.092,-192.435,3.71868,-217.092,-1.62855
block_1,8651,9,12902,1,-216.75,-191.8,3.74076,-216.75,-1.62856
block_1,8652,9,12903,1,-197.545,-174.497,4.43061,-197.545,-1.58602
block_1,8653,9,12904,1,-197.229,-173.91,4.4566,-197.229,-1.58603
block_1,8654,9,12905,1,-216.405,-191.16,3.76284,-216.405,-1.62856
block_1,8655,9,12906,1,-216.059,-190.517,3.78492,-216.059,-1.62857
block_1,8656,9,12907,1,-159.333,-140.238,5.64944,-159.333,-1.48175
block_1,8657,9,12908,1,-159.074,-139.757,5.68219,-159.074,-1.48176
block_1,8658,9,12909,1,-178.119,-156.775,5.09674,-178.119,-1.53688
block_1,8659,9,12910,1,-177.829,-156.238,5.12629,-177.829,-1.53689
block_1,8660,9,12911,1,-158.814,-139.273,5.71494,-158.814,-1.48176
block_1,8661,9,12912,1,-158.552,-138.787,5.74769,-158.552,-1.48177
block_1,8662,9,12913,1,-177.538,-155.697,5.15584,-177.538,-1.53689
block_1,8663,9,12914,1,-177.245,-155.154,5.18539,-177.245,-1.5369
block_1,8664,9,12915,1,-196.911,-173.319,4.4826,-196.911,-1.58603
block_1,8665,9,12916,1,-196.591,-172.725,4.50859,-196.591,-1.58604
block_1,8666,9,12917,1,-215.711,-189.871,3.80699,-215.711,-1.62857
block_1,8667,9,12918,1,-215.36,-189.22,3.82907,-215.36,-1.62858
block_1,8668,9,12919,1,-196.269,-172.128,4.53458,-196.269,-1.58604
block_1,8669,9,12920,1,-195.946,-171.527,4.56057,-195.946,-1.58605
block_1,8670,9,12921,1,-215.008,-188.566,3.85115,-215.008,-1.62858
block_1,8671,9,12922,1,-214.653,-187.908,3.87323,-214.653,-1.62859
block_1,8672,9,12923,1,-236.02,-209.218,2.9987,-236.02,-1.66385
block_1,8673,9,12924,1,-235.648,-208.527,3.01651,-235.648,-1.66386
block_1,8674,9,12925,1,-254.957,-226.01,2.2187,-254.957,-1.69128
block_1,8675,9,12926,1,-254.555,-225.263,2.23188,-254.555,-1.69128
block_1,8676,9,12927,1,-235.274,-207.832,3.03432,-235.274,-1.66386
block_1,8677,9,12928,1,-234.897,-207.133,3.05213,-234.897,-1.66387
block_1,8678,9,12929,1,-254.151,-224.513,2.24507,-254.151,-1.69129
block_1,8679,9,12930,1,-253.744,-223.758,2.25825,-253.744,-1.69129
block_1,8680,9,12931,1,-273.904,-242.811,1.37866,-273.904,-1.7102
block_1,8681,9,12932,1,-273.472,-242.009,1.38687,-273.472,-1.71021
block_1,8682,9,12933,1,-292.86,-259.622,0.478598,-292.86,-1.72
block_1,8683,9,12934,1,-292.399,-258.765,0.481466,-292.399,-1.72
block_1,8684,9,12935,1,-273.038,-241.203,1.39507,-273.038,-1.71021
block_1,8685,9,12936,1,-272.601,-240.392,1.40327,-272.601,-1.71022
block_1,8686,9,12937,1,-291.935,-257.904,0.484333,-291.935,-1.72001
block_1,8687,9,12938,1,-291.468,-257.037,0.487199,-291.468,-1.72001
block_1,8688,9,12939,1,-234.518,-206.43,3.06994,-234.518,-1.66387
block_1,8689,9,12940,1,-234.138,-205.723,3.08775,-234.138,-1.66388
block_1,8690,9,12941,1,-253.335,-222.999,2.27143,-253.335,-1.6913
block_1,8691,9,12942,1,-252.924,-222.235,2.28462,-252.924,-1.6913
block_1,8692,9,12943,1,-233.754,-205.012,3.10556,-233.754,-1.66388
block_1,8693,9,12944,1,-233.369,-204.297,3.12337,-233.369,-1.66389
block_1,8694,9,12945,1,-252.51,-221.467,2.2978,-252.51,-1.69131
block_1,8695,9,12946,1,-252.094,-220.694,2.31099,-252.094,-1.69131
block_1,8696,9,12947,1,-272.161,-239.577,1.41148,-272.161,-1.71022
block_1,8697,9,12948,1,-271.72,-238.756,1.41968,-271.72,-1.71023
block_1,8698,9,12949,1,-290.998,-256.165,0.490066,-290.998,-1.72002
block_1,8699,9,12950,1,-290.526,-255.288,0.492931,-290.526,-1.72002
block_1,8700,9,12951,1,-271.275,-237.931,1.42788,-271.275,-1.71023
block_1,8701,9,12952,1,-270.828,-237.102,1.43608,-270.828,-1.71024
block_1,8702,9,12953,1,-290.051,-254.406,0.495797,-290.051,-1.72003
block_1,8703,9,12954,1,-289.573,-253.519,0.498661,-289.573,-1.72003
block_1,8704,9,12955,1,-13.3355,-7.98358,8.04091,-9.14541,-0.900971
block_1,8705,9,12956,1,-13.3558,-7.95498,8.08646,-9.13001,-0.900975
block_1,8706,9,12957,1,-27.9966,-24.2642,7.97842,-27.7796,-0.981276
block_1,8707,9,12958,1,-27.951,-24.1777,8.02362,-27.733,-0.98128
block_1,8708,9,12959,1,-13.3761,-7.92622,8.13201,-9.11452,-0.900978
block_1,8709,9,12960,1,-13.3964,-7.8973,8.17757,-9.09895,-0.900982
block_1,8710,9,12961,1,-27.9051,-24.0907,8.06882,-27.6862,-0.981284
block_1,8711,9,12962,1,-27.859,-24.0032,8.11401,-27.639,-0.981288
block_1,8712,9,12963,1,-46.4149,-40.5459,7.85305,-46.4149,-1.06064
block_1,8713,9,12964,1,-46.3371,-40.4015,7.89754,-46.3371,-1.06064
block_1,8714,9,12965,1,-65.0519,-56.8294,7.66481,-65.0519,-1.13843
block_1,8715,9,12966,1,-64.9429,-56.6271,7.70823,-64.9429,-1.13844
block_1,8716,9,12967,1,-46.2589,-40.2563,7.94203,-46.2589,-1.06065
block_1,8717,9,12968,1,-46.1802,-40.1103,7.98652,-46.1802,-1.06065
block_1,8718,9,12969,1,-64.8333,-56.4236,7.75165,-64.8333,-1.13844
block_1,8719,9,12970,1,-64.7231,-56.219,7.79508,-64.7231,-1.13845
block_1,8720,9,12971,1,-13.4167,-7.86821,8.22312,-9.08329,-0.900985
block_1,8721,9,12972,1,-13.437,-7.83896,8.26867,-9.06754,-0.900989
block_1,8722,9,12973,1,-27.8127,-23.9153,8.15921,-27.5917,-0.981292
block_1,8723,9,12974,1,-27.7661,-23.8268,8.20441,-27.544,-0.981296
block_1,8724,9,12975,1,-13.4573,-7.80956,8.31423,-9.0517,-0.900993
block_1,8725,9,12976,1,-13.4776,-7.77998,8.35978,-9.03578,-0.900996
block_1,8726,9,12977,1,-27.7192,-23.7379,8.24961,-27.4961,-0.9813
block_1,8727,9,12978,1,-27.6722,-23.6484,8.29481,-27.4479,-0.981304
block_1,8728,9,12979,1,-46.1011,-39.9634,8.03101,-46.1011,-1.06066
block_1,8729,9,12980,1,-46.0215,-39.8157,8.0755,-46.0215,-1.06066
block_1,8730,9,12981,1,-64.6123,-56.0133,7.8385,-64.6123,-1.13845
block_1,8731,9,12982,1,-64.5009,-55.8064,7.88192,-64.5009,-1.13845
block_1,8732,9,12983,1,-45.9416,-39.6672,8.11998,-45.9416,-1.06067
block_1,8733,9,12984,1,-45.8611,-39.5179,8.16447,-45.8611,-1.06067
block_1,8734,9,12985,1,-64.3888,-55.5983,7.92534,-64.3888,-1.13846
block_1,8735,9,12986,1,-64.2761,-55.3892,7.96877,-64.2761,-1.13846
block_1,8736,9,12987,1,-83.6914,-73.1154,7.41369,-83.6914,-1.21402
block_1,8737,9,12988,1,-83.5512,-72.8551,7.45569,-83.5512,-1.21403
block_1,8738,9,12989,1,-102.334,-89.4045,7.09969,-102.334,-1.28678
block_1,8739,9,12990,1,-102.163,-89.0864,7.13992,-102.163,-1.28679
block_1,8740,9,12991,1,-83.4103,-72.5934,7.49769,-83.4103,-1.21403
block_1,8741,9,12992,1,-83.2685,-72.3303,7.53969,-83.2685,-1.21404
block_1,8742,9,12993,1,-101.99,-88.7664,7.18014,-101.99,-1.28679
block_1,8743,9,12994,1,-101.817,-88.4447,7.22036,-101.817,-1.2868
block_1,8744,9,12995,1,-120.981,-105.698,6.72282,-120.981,-1.35608
block_1,8745,9,12996,1,-120.778,-105.321,6.76091,-120.778,-1.35609
block_1,8746,9,12997,1,-139.632,-121.995,6.28307,-139.632,-1.42129
block_1,8747,9,12998,1,-139.398,-121.561,6.31867,-139.398,-1.42129
block_1,8748,9,12999,1,-120.574,-104.943,6.799,-120.574,-1.35609
block_1,8749,9,13000,1,-120.37,-104.563,6.83708,-120.37,-1.3561
block_1,8750,9,13001,1,-139.163,-121.125,6.35427,-139.163,-1.4213
block_1,8751,9,13002,1,-138.927,-120.686,6.38987,-138.927,-1.4213
block_1,8752,9,13003,1,-83.126,-72.0656,7.58169,-83.126,-1.21404
block_1,8753,9,13004,1,-82.9826,-71.7995,7.62369,-82.9826,-1.21405
block_1,8754,9,13005,1,-101.643,-88.1212,7.26058,-101.643,-1.2868
block_1,8755,9,13006,1,-101.468,-87.7959,7.3008,-101.468,-1.28681
block_1,8756,9,13007,1,-82.8385,-71.532,7.66569,-82.8385,-1.21405
block_1,8757,9,13008,1,-82.6936,-71.2629,7.70769,-82.6936,-1.21406
block_1,8758,9,13009,1,-101.291,-87.4687,7.34103,-101.291,-1.28681
block_1,8759,9,13010,1,-101.114,-87.1398,7.38125,-101.114,-1.28682
block_1,8760,9,13011,1,-120.164,-104.181,6.87517,-120.164,-1.3561
block_1,8761,9,13012,1,-119.956,-103.796,6.91326,-119.956,-1.35611
block_1,8762,9,13013,1,-138.689,-120.245,6.42546,-138.689,-1.42131
block_1,8763,9,13014,1,-138.45,-119.801,6.46106,-138.45,-1.42131
block_1,8764,9,13015,1,-119.748,-103.409,6.95135,-119.748,-1.35611
block_1,8765,9,13016,1,-119.539,-103.021,6.98944,-119.539,-1.35612
block_1,8766,9,13017,1,-138.21,-119.355,6.49666,-138.21,-1.42132
block_1,8767,9,13018,1,-137.968,-118.906,6.53226,-137.968,-1.42132
block_1,8768,9,13019,1,-13.4979,-7.75025,8.40533,-9.01977,-0.901
block_1,8769,9,13020,1,-13.5183,-7.72036,8.45089,-9.00367,-0.901004
block_1,8770,9,13021,1,-27.6248,-23.5585,8.34001,-27.3995,-0.981308
block_1,8771,9,13022,1,-27.5773,-23.4681,8.38521,-27.3508,-0.981312
block_1,8772,9,13023,1,-13.5386,-7.6903,8.49644,-8.98749,-0.901007
block_1,8773,9,13024,1,-13.5589,-7.66008,8.542,-8.97121,-0.901011
block_1,8774,9,13025,1,-27.5294,-23.3772,8.43041,-27.3018,-0.981316
block_1,8775,9,13026,1,-27.4814,-23.2858,8.47561,-27.2526,-0.98132
block_1,8776,9,13027,1,-45.7803,-39.3678,8.20896,-45.7803,-1.06067
block_1,8777,9,13028,1,-45.699,-39.2168,8.25345,-45.699,-1.06068
block_1,8778,9,13029,1,-64.1629,-55.1788,8.01219,-64.1629,-1.13847
block_1,8779,9,13030,1,-64.049,-54.9674,8.05562,-64.049,-1.13847
block_1,8780,9,13031,1,-45.6173,-39.0651,8.29794,-45.6173,-1.06068
block_1,8781,9,13032,1,-45.5351,-38.9125,8.34243,-45.5351,-1.06069
block_1,8782,9,13033,1,-63.9344,-54.7548,8.09904,-63.9344,-1.13848
block_1,8783,9,13034,1,-63.8193,-54.541,8.14246,-63.8193,-1.13848
block_1,8784,9,13035,1,-13.5793,-7.6297,8.58756,-8.95486,-0.901015
block_1,8785,9,13036,1,-13.5996,-7.59915,8.63311,-8.93841,-0.901019
block_1,8786,9,13037,1,-27.433,-23.1939,8.52082,-27.2031,-0.981324
block_1,8787,9,13038,1,-27.3845,-23.1015,8.56602,-27.1534,-0.981328
block_1,8788,9,13039,1,-13.6199,-7.56845,8.67867,-8.92188,-0.901023
block_1,8789,9,13040,1,-13.6403,-7.53758,8.72423,-8.90526,-0.901026
block_1,8790,9,13041,1,-27.3357,-23.0086,8.61122,-27.1034,-0.981332
block_1,8791,9,13042,1,-27.2866,-22.9153,8.65642,-27.0531,-0.981336
block_1,8792,9,13043,1,-45.4525,-38.7591,8.38693,-45.4525,-1.06069
block_1,8793,9,13044,1,-45.3694,-38.6049,8.43142,-45.3694,-1.0607
block_1,8794,9,13045,1,-63.7036,-54.3261,8.18589,-63.7036,-1.13849
block_1,8795,9,13046,1,-63.5872,-54.1101,8.22931,-63.5872,-1.13849
block_1,8796,9,13047,1,-45.2859,-38.4499,8.47591,-45.2859,-1.0607
block_1,8797,9,13048,1,-45.202,-38.2941,8.5204,-45.202,-1.0607
block_1,8798,9,13049,1,-63.4702,-53.8929,8.27274,-63.4702,-1.1385
block_1,8799,9,13050,1,-63.3527,-53.6746,8.31616,-63.3527,-1.1385
block_1,8800,9,13051,1,-82.5479,-70.9924,7.74969,-82.5479,-1.21406
block_1,8801,9,13052,1,-82.4014,-70.7204,7.7917,-82.4014,-1.21407
block_1,8802,9,13053,1,-100.936,-86.8091,7.42147,-100.936,-1.28682
block_1,8803,9,13054,1,-100.757,-86.4766,7.4617,-100.757,-1.28683
block_1,8804,9,13055,1,-82.2541,-70.4469,7.8337,-82.2541,-1.21407
block_1,8805,9,13056,1,-82.106,-70.172,7.8757,-82.106,-1.21407
block_1,8806,9,13057,1,-100.577,-86.1423,7.50192,-100.577,-1.28683
block_1,8807,9,13058,1,-100.396,-85.8062,7.54214,-100.396,-1.28684
block_1,8808,9,13059,1,-119.328,-102.63,7.02753,-119.328,-1.35612
block_1,8809,9,13060,1,-119.117,-102.237,7.06562,-119.117,-1.35613
block_1,8810,9,13061,1,-137.725,-118.455,6.56786,-137.725,-1.42133
block_1,8811,9,13062,1,-137.481,-118.001,6.60346,-137.481,-1.42133
block_1,8812,9,13063,1,-118.904,-101.842,7.10371,-118.904,-1.35613
block_1,8813,9,13064,1,-118.69,-101.444,7.14179,-118.69,-1.35614
block_1,8814,9,13065,1,-137.235,-117.545,6.63905,-137.235,-1.42134
block_1,8815,9,13066,1,-136.988,-117.087,6.67465,-136.988,-1.42134
block_1,8816,9,13067,1,-81.9572,-69.8956,7.9177,-81.9572,-1.21408
block_1,8817,9,13068,1,-81.8075,-69.6177,7.9597,-81.8075,-1.21408
block_1,8818,9,13069,1,-100.214,-85.4683,7.58237,-100.214,-1.28684
block_1,8819,9,13070,1,-100.031,-85.1286,7.62259,-100.031,-1.28685
block_1,8820,9,13071,1,-81.657,-69.3384,8.00171,-81.657,-1.21409
block_1,8821,9,13072,1,-81.5058,-69.0576,8.04371,-81.5058,-1.21409
block_1,8822,9,13073,1,-99.847,-84.7871,7.66282,-99.847,-1.28685
block_1,8823,9,13074,1,-99.6621,-84.4438,7.70304,-99.6621,-1.28686
block_1,8824,9,13075,1,-118.475,-101.045,7.17988,-118.475,-1.35614
block_1,8825,9,13076,1,-118.258,-100.643,7.21797,-118.258,-1.35615
block_1,8826,9,13077,1,-136.74,-116.626,6.71025,-136.74,-1.42135
block_1,8827,9,13078,1,-136.49,-116.163,6.74585,-136.49,-1.42135
block_1,8828,9,13079,1,-118.041,-100.24,7.25606,-118.041,-1.35615
block_1,8829,9,13080,1,-117.822,-99.8339,7.29415,-117.822,-1.35616
block_1,8830,9,13081,1,-136.239,-115.697,6.78145,-136.239,-1.42136
block_1,8831,9,13082,1,-135.987,-115.229,6.81705,-135.987,-1.42137
block_1,8832,9,13083,1,-158.288,-138.298,5.78045,-158.288,-1.48177
block_1,8833,9,13084,1,-158.023,-137.806,5.8132,-158.023,-1.48178
block_1,8834,9,13085,1,-176.951,-154.607,5.21494,-176.951,-1.5369
block_1,8835,9,13086,1,-176.655,-154.057,5.24449,-176.655,-1.53691
block_1,8836,9,13087,1,-157.757,-137.312,5.84595,-157.757,-1.48178
block_1,8837,9,13088,1,-157.489,-136.814,5.8787,-157.489,-1.48179
block_1,8838,9,13089,1,-176.357,-153.504,5.27404,-176.357,-1.53691
block_1,8839,9,13090,1,-176.057,-152.948,5.30359,-176.057,-1.53692
block_1,8840,9,13091,1,-195.62,-170.923,4.58656,-195.62,-1.58605
block_1,8841,9,13092,1,-195.293,-170.315,4.61256,-195.293,-1.58606
block_1,8842,9,13093,1,-214.297,-187.246,3.89531,-214.297,-1.62859
block_1,8843,9,13094,1,-213.938,-186.58,3.91739,-213.938,-1.6286
block_1,8844,9,13095,1,-194.964,-169.704,4.63855,-194.964,-1.58607
block_1,8845,9,13096,1,-194.633,-169.089,4.66454,-194.633,-1.58607
block_1,8846,9,13097,1,-213.578,-185.911,3.93947,-213.578,-1.6286
block_1,8847,9,13098,1,-213.215,-185.238,3.96154,-213.215,-1.62861
block_1,8848,9,13099,1,-157.22,-136.314,5.91145,-157.22,-1.48179
block_1,8849,9,13100,1,-156.949,-135.811,5.94421,-156.949,-1.4818
block_1,8850,9,13101,1,-175.756,-152.389,5.33314,-175.756,-1.53692
block_1,8851,9,13102,1,-175.454,-151.827,5.36269,-175.454,-1.53693
block_1,8852,9,13103,1,-156.676,-135.305,5.97696,-156.676,-1.4818
block_1,8853,9,13104,1,-156.402,-134.797,6.00971,-156.402,-1.48181
block_1,8854,9,13105,1,-175.149,-151.262,5.39224,-175.149,-1.53694
block_1,8855,9,13106,1,-174.843,-150.694,5.42179,-174.843,-1.53694
block_1,8856,9,13107,1,-194.3,-168.472,4.69053,-194.3,-1.58608
block_1,8857,9,13108,1,-193.965,-167.85,4.71652,-193.965,-1.58608
block_1,8858,9,13109,1,-212.851,-184.561,3.98362,-212.851,-1.62862
block_1,8859,9,13110,1,-212.484,-183.88,4.0057,-212.484,-1.62862
block_1,8860,9,13111,1,-193.628,-167.225,4.74252,-193.628,-1.58609
block_1,8861,9,13112,1,-193.29,-166.597,4.76851,-193.29,-1.58609
block_1,8862,9,13113,1,-212.115,-183.196,4.02778,-212.115,-1.62863
block_1,8863,9,13114,1,-211.745,-182.508,4.04986,-211.745,-1.62863
block_1,8864,9,13115,1,-232.982,-203.577,3.14118,-232.982,-1.66389
block_1,8865,9,13116,1,-232.592,-202.854,3.15899,-232.592,-1.6639
block_1,8866,9,13117,1,-251.675,-219.917,2.32417,-251.675,-1.69132
block_1,8867,9,13118,1,-251.254,-219.136,2.33735,-251.254,-1.69132
block_1,8868,9,13119,1,-232.2,-202.126,3.17679,-232.2,-1.6639
block_1,8869,9,13120,1,-231.806,-201.394,3.1946,-231.806,-1.66391
block_1,8870,9,13121,1,-250.831,-218.35,2.35054,-250.831,-1.69133
block_1,8871,9,13122,1,-250.406,-217.56,2.36372,-250.406,-1.69133
block_1,8872,9,13123,1,-270.379,-236.267,1.44429,-270.379,-1.71024
block_1,8873,9,13124,1,-269.927,-235.428,1.45249,-269.927,-1.71025
block_1,8874,9,13125,1,-289.092,-252.627,0.501526,-289.092,-1.72003
block_1,8875,9,13126,1,-288.609,-251.73,0.50439,-288.609,-1.72004
block_1,8876,9,13127,1,-269.472,-234.584,1.46069,-269.472,-1.71025
block_1,8877,9,13128,1,-269.015,-233.735,1.46889,-269.015,-1.71026
block_1,8878,9,13129,1,-288.123,-250.827,0.507254,-288.123,-1.72004
block_1,8879,9,13130,1,-287.634,-249.92,0.510117,-287.634,-1.72005
block_1,8880,9,13131,1,-231.41,-200.659,3.21241,-231.41,-1.66391
block_1,8881,9,13132,1,-231.011,-199.919,3.23022,-231.011,-1.66392
block_1,8882,9,13133,1,-249.978,-216.765,2.3769,-249.978,-1.69134
block_1,8883,9,13134,1,-249.547,-215.966,2.39008,-249.547,-1.69134
block_1,8884,9,13135,1,-230.61,-199.175,3.24803,-230.61,-1.66392
block_1,8885,9,13136,1,-230.208,-198.427,3.26584,-230.208,-1.66393
block_1,8886,9,13137,1,-249.114,-215.163,2.40326,-249.114,-1.69135
block_1,8887,9,13138,1,-248.679,-214.355,2.41645,-248.679,-1.69135
block_1,8888,9,13139,1,-268.555,-232.881,1.47709,-268.555,-1.71026
block_1,8889,9,13140,1,-268.093,-232.023,1.48529,-268.093,-1.71027
block_1,8890,9,13141,1,-287.143,-249.008,0.51298,-287.143,-1.72005
block_1,8891,9,13142,1,-286.648,-248.09,0.515842,-286.648,-1.72006
block_1,8892,9,13143,1,-267.628,-231.16,1.49349,-267.628,-1.71027
block_1,8893,9,13144,1,-267.16,-230.292,1.50169,-267.16,-1.71028
block_1,8894,9,13145,1,-286.152,-247.168,0.518704,-286.152,-1.72006
block_1,8895,9,13146,1,-285.652,-246.24,0.521566,-285.652,-1.72007
block_1,8896,9,13147,1,-156.127,-134.285,6.04246,-156.127,-1.48181
block_1,8897,9,13148,1,-155.85,-133.771,6.07521,-155.85,-1.48182
block_1,8898,9,13149,1,-174.535,-150.122,5.45134,-174.535,-1.53695
block_1,8899,9,13150,1,-174.226,-149.547,5.48089,-174.226,-1.53695
block_1,8900,9,13151,1,-155.572,-133.255,6.10797,-155.572,-1.48182
block_1,8901,9,13152,1,-155.292,-132.735,6.14072,-155.292,-1.48183
block_1,8902,9,13153,1,-173.914,-148.97,5.51044,-173.914,-1.53696
block_1,8903,9,13154,1,-173.602,-148.389,5.53999,-173.602,-1.53696
block_1,8904,9,13155,1,-192.95,-165.965,4.7945,-192.95,-1.5861
block_1,8905,9,13156,1,-192.608,-165.33,4.82049,-192.608,-1.5861
block_1,8906,9,13157,1,-211.372,-181.816,4.07193,-211.372,-1.62864
block_1,8907,9,13158,1,-210.997,-181.12,4.09401,-210.997,-1.62864
block_1,8908,9,13159,1,-192.264,-164.692,4.84648,-192.264,-1.58611
block_1,8909,9,13160,1,-191.918,-164.05,4.87248,-191.918,-1.58611
block_1,8910,9,13161,1,-210.621,-180.421,4.11609,-210.621,-1.62865
block_1,8911,9,13162,1,-210.242,-179.718,4.13817,-210.242,-1.62865
block_1,8912,9,13163,1,-155.01,-132.213,6.17347,-155.01,-1.48183
block_1,8913,9,13164,1,-154.728,-131.687,6.20623,-154.728,-1.48184
block_1,8914,9,13165,1,-173.287,-147.805,5.56954,-173.287,-1.53697
block_1,8915,9,13166,1,-172.971,-147.218,5.59909,-172.971,-1.53697
block_1,8916,9,13167,1,-154.443,-131.159,6.23898,-154.443,-1.48185
block_1,8917,9,13168,1,-154.157,-130.629,6.27173,-154.157,-1.48185
block_1,8918,9,13169,1,-172.653,-146.628,5.62865,-172.653,-1.53698
block_1,8919,9,13170,1,-172.333,-146.035,5.6582,-172.333,-1.53698
block_1,8920,9,13171,1,-191.57,-163.404,4.89847,-191.57,-1.58612
block_1,8921,9,13172,1,-191.221,-162.755,4.92446,-191.221,-1.58613
block_1,8922,9,13173,1,-209.861,-179.011,4.16024,-209.861,-1.62866
block_1,8923,9,13174,1,-209.478,-178.3,4.18232,-209.478,-1.62866
block_1,8924,9,13175,1,-190.87,-162.103,4.95045,-190.87,-1.58613
block_1,8925,9,13176,1,-190.516,-161.447,4.97644,-190.516,-1.58614
block_1,8926,9,13177,1,-209.094,-177.586,4.2044,-209.094,-1.62867
block_1,8927,9,13178,1,-208.707,-176.868,4.22648,-208.707,-1.62868
block_1,8928,9,13179,1,-229.802,-197.675,3.28364,-229.802,-1.66393
block_1,8929,9,13180,1,-229.395,-196.919,3.30145,-229.395,-1.66394
block_1,8930,9,13181,1,-248.242,-213.543,2.42963,-248.242,-1.69136
block_1,8931,9,13182,1,-247.802,-212.726,2.44281,-247.802,-1.69136
block_1,8932,9,13183,1,-228.986,-196.158,3.31926,-228.986,-1.66394
block_1,8933,9,13184,1,-228.574,-195.394,3.33706,-228.574,-1.66395
block_1,8934,9,13185,1,-247.36,-211.905,2.45599,-247.36,-1.69137
block_1,8935,9,13186,1,-246.915,-211.079,2.46917,-246.915,-1.69138
block_1,8936,9,13187,1,-266.69,-229.42,1.50989,-266.69,-1.71028
block_1,8937,9,13188,1,-266.218,-228.543,1.51809,-266.218,-1.71029
block_1,8938,9,13189,1,-285.15,-245.307,0.524427,-285.15,-1.72007
block_1,8939,9,13190,1,-284.644,-244.37,0.527288,-284.644,-1.72008
block_1,8940,9,13191,1,-265.743,-227.661,1.52629,-265.743,-1.71029
block_1,8941,9,13192,1,-265.265,-226.774,1.53449,-265.265,-1.7103
block_1,8942,9,13193,1,-284.137,-243.427,0.530148,-284.137,-1.72008
block_1,8943,9,13194,1,-283.626,-242.479,0.533008,-283.626,-1.72009
block_1,8944,9,13195,1,-228.16,-194.626,3.35487,-228.16,-1.66396
block_1,8945,9,13196,1,-227.744,-193.853,3.37268,-227.744,-1.66396
block_1,8946,9,13197,1,-246.468,-210.249,2.48235,-246.468,-1.69138
block_1,8947,9,13198,1,-246.018,-209.415,2.49553,-246.018,-1.69139
block_1,8948,9,13199,1,-227.326,-193.077,3.39049,-227.326,-1.66397
block_1,8949,9,13200,1,-226.905,-192.296,3.40829,-226.905,-1.66397
block_1,8950,9,13201,1,-245.567,-208.576,2.50871,-245.567,-1.69139
block_1,8951,9,13202,1,-245.113,-207.733,2.52189,-245.113,-1.6914
block_1,8952,9,13203,1,-264.785,-225.883,1.54268,-264.785,-1.7103
block_1,8953,9,13204,1,-264.302,-224.986,1.55088,-264.302,-1.71031
block_1,8954,9,13205,1,-283.113,-241.526,0.535868,-283.113,-1.72009
block_1,8955,9,13206,1,-282.597,-240.568,0.538727,-282.597,-1.7201
block_1,8956,9,13207,1,-263.817,-224.086,1.55908,-263.817,-1.71031
block_1,8957,9,13208,1,-263.329,-223.18,1.56728,-263.329,-1.71032
block_1,8958,9,13209,1,-282.078,-239.605,0.541586,-282.078,-1.7201
block_1,8959,9,13210,1,-281.557,-238.637,0.544444,-281.557,-1.72011
block_1,8960,9,13211,1,-13.6606,-7.50655,8.76978,-8.88855,-0.90103
block_1,8961,9,13212,1,-13.681,-7.47536,8.81534,-8.87176,-0.901034
block_1,8962,9,13213,1,-27.2373,-22.8214,8.70162,-27.0026,-0.98134
block_1,8963,9,13214,1,-27.1878,-22.7271,8.74683,-26.9518,-0.981344
block_1,8964,9,13215,1,-13.7013,-7.44401,8.8609,-8.85487,-0.901038
block_1,8965,9,13216,1,-13.7217,-7.41249,8.90646,-8.83791,-0.901042
block_1,8966,9,13217,1,-27.138,-22.6323,8.79203,-26.9007,-0.981349
block_1,8967,9,13218,1,-27.088,-22.537,8.83723,-26.8494,-0.981353
block_1,8968,9,13219,1,-45.1176,-38.1374,8.56489,-45.1176,-1.06071
block_1,8969,9,13220,1,-45.0328,-37.9799,8.60939,-45.0328,-1.06071
block_1,8970,9,13221,1,-63.2344,-53.4551,8.35959,-63.2344,-1.1385
block_1,8971,9,13222,1,-63.1156,-53.2345,8.40302,-63.1156,-1.13851
block_1,8972,9,13223,1,-44.9476,-37.8216,8.65388,-44.9476,-1.06072
block_1,8973,9,13224,1,-44.8619,-37.6625,8.69837,-44.8619,-1.06072
block_1,8974,9,13225,1,-62.9962,-53.0128,8.44644,-62.9962,-1.13851
block_1,8975,9,13226,1,-62.8761,-52.7899,8.48987,-62.8761,-1.13852
block_1,8976,9,13227,1,-13.742,-7.38081,8.95201,-8.82085,-0.901046
block_1,8977,9,13228,1,-13.7624,-7.34897,8.99757,-8.80371,-0.90105
block_1,8978,9,13229,1,-27.0377,-22.4412,8.88244,-26.7978,-0.981357
block_1,8979,9,13230,1,-26.9872,-22.3449,8.92764,-26.7459,-0.981361
block_1,8980,9,13231,1,-13.7827,-7.31697,9.04313,-8.78648,-0.901054
block_1,8981,9,13232,1,-13.8031,-7.2848,9.08869,-8.76916,-0.901058
block_1,8982,9,13233,1,-26.9365,-22.2481,8.97285,-26.6938,-0.981366
block_1,8983,9,13234,1,-26.8855,-22.1509,9.01805,-26.6414,-0.98137
block_1,8984,9,13235,1,-44.7757,-37.5026,8.74287,-44.7757,-1.06073
block_1,8985,9,13236,1,-44.6892,-37.3419,8.78736,-44.6892,-1.06073
block_1,8986,9,13237,1,-62.7555,-52.5658,8.5333,-62.7555,-1.13852
block_1,8987,9,13238,1,-62.6342,-52.3406,8.57672,-62.6342,-1.13853
block_1,8988,9,13239,1,-44.6022,-37.1803,8.83185,-44.6022,-1.06074
block_1,8989,9,13240,1,-44.5147,-37.018,8.87635,-44.5147,-1.06074
block_1,8990,9,13241,1,-62.5123,-52.1143,8.62015,-62.5123,-1.13853
block_1,8991,9,13242,1,-62.3898,-51.8868,8.66358,-62.3898,-1.13854
block_1,8992,9,13243,1,-81.3538,-68.7753,8.08571,-81.3538,-1.2141
block_1,8993,9,13244,1,-81.2009,-68.4916,8.12772,-81.2009,-1.2141
block_1,8994,9,13245,1,-99.4763,-84.0987,7.74327,-99.4763,-1.28686
block_1,8995,9,13246,1,-99.2894,-83.7518,7.78349,-99.2894,-1.28687
block_1,8996,9,13247,1,-81.0473,-68.2063,8.16972,-81.0473,-1.21411
block_1,8997,9,13248,1,-80.8929,-67.9197,8.21173,-80.8929,-1.21411
block_1,8998,9,13249,1,-99.1016,-83.4031,7.82372,-99.1016,-1.28687
block_1,8999,9,13250,1,-98.9128,-83.0526,7.86394,-98.9128,-1.28688
block_1,9000,9,13251,1,-117.603,-99.426,7.33224,-117.603,-1.35616
block_1,9001,9,13252,1,-117.382,-99.016,7.37033,-117.382,-1.35617
block_1,9002,9,13253,1,-135.734,-114.758,6.85265,-135.734,-1.42137
block_1,9003,9,13254,1,-135.479,-114.285,6.88825,-135.479,-1.42138
block_1,9004,9,13255,1,-117.16,-98.6038,7.40843,-117.16,-1.35617
block_1,9005,9,13256,1,-116.937,-98.1895,7.44652,-116.937,-1.35618
block_1,9006,9,13257,1,-135.223,-113.809,6.92385,-135.223,-1.42138
block_1,9007,9,13258,1,-134.965,-113.331,6.95945,-134.965,-1.42139
block_1,9008,9,13259,1,-80.7377,-67.6315,8.25373,-80.7377,-1.21412
block_1,9009,9,13260,1,-80.5817,-67.3419,8.29573,-80.5817,-1.21412
block_1,9010,9,13261,1,-98.7231,-82.7004,7.90417,-98.7231,-1.28688
block_1,9011,9,13262,1,-98.5324,-82.3463,7.94439,-98.5324,-1.28689
block_1,9012,9,13263,1,-80.4249,-67.0508,8.33774,-80.4249,-1.21413
block_1,9013,9,13264,1,-80.2674,-66.7582,8.37974,-80.2674,-1.21413
block_1,9014,9,13265,1,-98.3407,-81.9904,7.98462,-98.3407,-1.28689
block_1,9015,9,13266,1,-98.1481,-81.6327,8.02485,-98.1481,-1.2869
block_1,9016,9,13267,1,-116.712,-97.7731,7.48461,-116.712,-1.35618
block_1,9017,9,13268,1,-116.487,-97.3546,7.5227,-116.487,-1.35619
block_1,9018,9,13269,1,-134.706,-112.85,6.99505,-134.706,-1.42139
block_1,9019,9,13270,1,-134.446,-112.368,7.03065,-134.446,-1.4214
block_1,9020,9,13271,1,-116.26,-96.9339,7.56079,-116.26,-1.35619
block_1,9021,9,13272,1,-116.033,-96.5112,7.59888,-116.033,-1.3562
block_1,9022,9,13273,1,-134.185,-111.882,7.06625,-134.185,-1.4214
block_1,9023,9,13274,1,-133.922,-111.394,7.10185,-133.922,-1.42141
block_1,9024,9,13275,1,-13.8234,-7.25248,9.13425,-8.75175,-0.901062
block_1,9025,9,13276,1,-13.8437,-7.21999,9.17981,-8.73426,-0.901066
block_1,9026,9,13277,1,-26.8343,-22.0531,9.06326,-26.5888,-0.981374
block_1,9027,9,13278,1,-26.7828,-21.9549,9.10846,-26.5359,-0.981378
block_1,9028,9,13279,1,-13.8641,-7.18734,9.22537,-8.71668,-0.90107
block_1,9029,9,13280,1,-13.8844,-7.15452,9.27093,-8.69902,-0.901074
block_1,9030,9,13281,1,-26.7311,-21.8561,9.15367,-26.4827,-0.981383
block_1,9031,9,13282,1,-26.6791,-21.7569,9.19888,-26.4293,-0.981387
block_1,9032,9,13283,1,-44.4268,-36.8548,8.92084,-44.4268,-1.06074
block_1,9033,9,13284,1,-44.3385,-36.6908,8.96534,-44.3385,-1.06075
block_1,9034,9,13285,1,-62.2667,-51.6582,8.70701,-62.2667,-1.13854
block_1,9035,9,13286,1,-62.1429,-51.4285,8.75044,-62.1429,-1.13855
block_1,9036,9,13287,1,-44.2497,-36.526,9.00983,-44.2497,-1.06075
block_1,9037,9,13288,1,-44.1605,-36.3603,9.05433,-44.1605,-1.06076
block_1,9038,9,13289,1,-62.0186,-51.1976,8.79386,-62.0186,-1.13855
block_1,9039,9,13290,1,-61.8936,-50.9655,8.83729,-61.8936,-1.13856
block_1,9040,9,13291,1,-13.9047,-7.12155,9.3165,-8.68126,-0.901078
block_1,9041,9,13292,1,-13.9251,-7.08841,9.36206,-8.66342,-0.901082
block_1,9042,9,13293,1,-26.6269,-21.6572,9.24408,-26.3756,-0.981392
block_1,9043,9,13294,1,-26.5745,-21.557,9.28929,-26.3216,-0.981396
block_1,9044,9,13295,1,-13.9454,-7.05511,9.40762,-8.6455,-0.901086
block_1,9045,9,13296,1,-13.9657,-7.02165,9.45318,-8.62748,-0.90109
block_1,9046,9,13297,1,-26.5218,-21.4563,9.3345,-26.2674,-0.981401
block_1,9047,9,13298,1,-26.4689,-21.3551,9.37971,-26.2129,-0.981405
block_1,9048,9,13299,1,-44.0709,-36.1939,9.09883,-44.0709,-1.06076
block_1,9049,9,13300,1,-43.9808,-36.0266,9.14332,-43.9808,-1.06077
block_1,9050,9,13301,1,-61.768,-50.7323,8.88072,-61.768,-1.13856
block_1,9051,9,13302,1,-61.6418,-50.498,8.92415,-61.6418,-1.13857
block_1,9052,9,13303,1,-43.8903,-35.8585,9.18782,-43.8903,-1.06077
block_1,9053,9,13304,1,-43.7993,-35.6896,9.23232,-43.7993,-1.06078
block_1,9054,9,13305,1,-61.515,-50.2625,8.96758,-61.515,-1.13857
block_1,9055,9,13306,1,-61.3876,-50.0259,9.01101,-61.3876,-1.13858
block_1,9056,9,13307,1,-80.109,-66.4641,8.42175,-80.109,-1.21414
block_1,9057,9,13308,1,-79.9498,-66.1686,8.46376,-79.9498,-1.21414
block_1,9058,9,13309,1,-97.9545,-81.2733,8.06507,-97.9545,-1.2869
block_1,9059,9,13310,1,-97.7599,-80.912,8.1053,-97.7599,-1.28691
block_1,9060,9,13311,1,-79.7899,-65.8716,8.50576,-79.7899,-1.21415
block_1,9061,9,13312,1,-79.6291,-65.5732,8.54777,-79.6291,-1.21416
block_1,9062,9,13313,1,-97.5644,-80.5489,8.14553,-97.5644,-1.28691
block_1,9063,9,13314,1,-97.3679,-80.184,8.18575,-97.3679,-1.28692
block_1,9064,9,13315,1,-115.804,-96.0863,7.63697,-115.804,-1.35621
block_1,9065,9,13316,1,-115.574,-95.6592,7.67507,-115.574,-1.35621
block_1,9066,9,13317,1,-133.658,-110.904,7.13745,-133.658,-1.42142
block_1,9067,9,13318,1,-133.392,-110.411,7.17305,-133.392,-1.42142
block_1,9068,9,13319,1,-115.343,-95.2301,7.71316,-115.343,-1.35622
block_1,9069,9,13320,1,-115.11,-94.7988,7.75125,-115.11,-1.35622
block_1,9070,9,13321,1,-133.126,-109.916,7.20866,-133.126,-1.42143
block_1,9071,9,13322,1,-132.858,-109.418,7.24426,-132.858,-1.42143
block_1,9072,9,13323,1,-79.4676,-65.2733,8.58977,-79.4676,-1.21416
block_1,9073,9,13324,1,-79.3053,-64.9719,8.63178,-79.3053,-1.21417
block_1,9074,9,13325,1,-97.1704,-79.8174,8.22598,-97.1704,-1.28693
block_1,9075,9,13326,1,-96.9719,-79.4489,8.26621,-96.9719,-1.28693
block_1,9076,9,13327,1,-79.1422,-64.669,8.67379,-79.1422,-1.21417
block_1,9077,9,13328,1,-78.9783,-64.3647,8.7158,-78.9783,-1.21418
block_1,9078,9,13329,1,-96.7725,-79.0787,8.30644,-96.7725,-1.28694
block_1,9079,9,13330,1,-96.5722,-78.7066,8.34667,-96.5722,-1.28694
block_1,9080,9,13331,1,-114.877,-94.3654,7.78934,-114.877,-1.35623
block_1,9081,9,13332,1,-114.642,-93.9299,7.82744,-114.642,-1.35623
block_1,9082,9,13333,1,-132.588,-108.918,7.27986,-132.588,-1.42144
block_1,9083,9,13334,1,-132.318,-108.415,7.31546,-132.318,-1.42144
block_1,9084,9,13335,1,-114.407,-93.4922,7.86553,-114.407,-1.35624
block_1,9085,9,13336,1,-114.17,-93.0524,7.90362,-114.17,-1.35625
block_1,9086,9,13337,1,-132.046,-107.91,7.35106,-132.046,-1.42145
block_1,9087,9,13338,1,-131.772,-107.403,7.38666,-131.772,-1.42146
block_1,9088,9,13339,1,-153.87,-130.095,6.30448,-153.87,-1.48186
block_1,9089,9,13340,1,-153.581,-129.559,6.33724,-153.581,-1.48186
block_1,9090,9,13341,1,-172.012,-145.438,5.68775,-172.012,-1.53699
block_1,9091,9,13342,1,-171.689,-144.839,5.7173,-171.689,-1.537
block_1,9092,9,13343,1,-153.291,-129.02,6.36999,-153.291,-1.48187
block_1,9093,9,13344,1,-152.999,-128.478,6.40274,-152.999,-1.48187
block_1,9094,9,13345,1,-171.365,-144.236,5.74685,-171.365,-1.537
block_1,9095,9,13346,1,-171.039,-143.631,5.7764,-171.039,-1.53701
block_1,9096,9,13347,1,-190.161,-160.788,5.00244,-190.161,-1.58614
block_1,9097,9,13348,1,-189.804,-160.126,5.02843,-189.804,-1.58615
block_1,9098,9,13349,1,-208.318,-176.146,4.24855,-208.318,-1.62868
block_1,9099,9,13350,1,-207.927,-175.42,4.27063,-207.927,-1.62869
block_1,9100,9,13351,1,-189.446,-159.46,5.05442,-189.446,-1.58615
block_1,9101,9,13352,1,-189.085,-158.79,5.08041,-189.085,-1.58616
block_1,9102,9,13353,1,-207.534,-174.69,4.29271,-207.534,-1.62869
block_1,9103,9,13354,1,-207.139,-173.957,4.31478,-207.139,-1.6287
block_1,9104,9,13355,1,-152.706,-127.933,6.4355,-152.706,-1.48188
block_1,9105,9,13356,1,-152.411,-127.386,6.46825,-152.411,-1.48189
block_1,9106,9,13357,1,-170.711,-143.022,5.80595,-170.711,-1.53701
block_1,9107,9,13358,1,-170.381,-142.41,5.8355,-170.381,-1.53702
block_1,9108,9,13359,1,-152.114,-126.836,6.50101,-152.114,-1.48189
block_1,9109,9,13360,1,-151.817,-126.283,6.53376,-151.817,-1.4819
block_1,9110,9,13361,1,-170.05,-141.795,5.86505,-170.05,-1.53703
block_1,9111,9,13362,1,-169.717,-141.177,5.8946,-169.717,-1.53703
block_1,9112,9,13363,1,-188.723,-158.117,5.1064,-188.723,-1.58617
block_1,9113,9,13364,1,-188.358,-157.441,5.13239,-188.358,-1.58617
block_1,9114,9,13365,1,-206.742,-173.22,4.33686,-206.742,-1.6287
block_1,9115,9,13366,1,-206.343,-172.479,4.35894,-206.343,-1.62871
block_1,9116,9,13367,1,-187.992,-156.761,5.15839,-187.992,-1.58618
block_1,9117,9,13368,1,-187.624,-156.078,5.18438,-187.624,-1.58618
block_1,9118,9,13369,1,-205.942,-171.735,4.38101,-205.942,-1.62872
block_1,9119,9,13370,1,-205.539,-170.987,4.40309,-205.539,-1.62872
block_1,9120,9,13371,1,-226.482,-191.511,3.4261,-226.482,-1.66398
block_1,9121,9,13372,1,-226.058,-190.722,3.4439,-226.058,-1.66398
block_1,9122,9,13373,1,-244.656,-206.886,2.53507,-244.656,-1.6914
block_1,9123,9,13374,1,-244.197,-206.034,2.54825,-244.197,-1.69141
block_1,9124,9,13375,1,-225.63,-189.929,3.46171,-225.63,-1.66399
block_1,9125,9,13376,1,-225.201,-189.132,3.47952,-225.201,-1.664
block_1,9126,9,13377,1,-243.736,-205.177,2.56143,-243.736,-1.69141
block_1,9127,9,13378,1,-243.272,-204.316,2.57461,-243.272,-1.69142
block_1,9128,9,13379,1,-262.839,-222.269,1.57547,-262.839,-1.71032
block_1,9129,9,13380,1,-262.346,-221.354,1.58367,-262.346,-1.71033
block_1,9130,9,13381,1,-281.032,-237.664,0.547302,-281.032,-1.72011
block_1,9131,9,13382,1,-280.505,-236.685,0.55016,-280.505,-1.72012
block_1,9132,9,13383,1,-261.851,-220.434,1.59187,-261.851,-1.71033
block_1,9133,9,13384,1,-261.353,-219.51,1.60006,-261.353,-1.71034
block_1,9134,9,13385,1,-279.976,-235.702,0.553017,-279.976,-1.72012
block_1,9135,9,13386,1,-279.443,-234.714,0.555874,-279.443,-1.72013
block_1,9136,9,13387,1,-224.77,-188.331,3.49732,-224.77,-1.664
block_1,9137,9,13388,1,-224.336,-187.526,3.51513,-224.336,-1.66401
block_1,9138,9,13389,1,-242.806,-203.451,2.58779,-242.806,-1.69142
block_1,9139,9,13390,1,-242.338,-202.581,2.60097,-242.338,-1.69143
block_1,9140,9,13391,1,-223.9,-186.717,3.53293,-223.9,-1.66401
block_1,9141,9,13392,1,-223.462,-185.903,3.55074,-223.462,-1.66402
block_1,9142,9,13393,1,-241.867,-201.707,2.61414,-241.867,-1.69144
block_1,9143,9,13394,1,-241.394,-200.829,2.62732,-241.394,-1.69144
block_1,9144,9,13395,1,-260.852,-218.58,1.60826,-260.852,-1.71035
block_1,9145,9,13396,1,-260.349,-217.646,1.61645,-260.349,-1.71035
block_1,9146,9,13397,1,-278.908,-233.72,0.55873,-278.908,-1.72013
block_1,9147,9,13398,1,-278.371,-232.722,0.561586,-278.371,-1.72014
block_1,9148,9,13399,1,-259.843,-216.707,1.62465,-259.843,-1.71036
block_1,9149,9,13400,1,-259.335,-215.764,1.63284,-259.335,-1.71036
block_1,9150,9,13401,1,-277.83,-231.718,0.564442,-277.83,-1.72014
block_1,9151,9,13402,1,-277.287,-230.709,0.567298,-277.287,-1.72015
block_1,9152,9,13403,1,-151.517,-125.727,6.56651,-151.517,-1.4819
block_1,9153,9,13404,1,-151.216,-125.168,6.59927,-151.216,-1.48191
block_1,9154,9,13405,1,-169.383,-140.556,5.92415,-169.383,-1.53704
block_1,9155,9,13406,1,-169.046,-139.931,5.9537,-169.046,-1.53704
block_1,9156,9,13407,1,-150.914,-124.607,6.63202,-150.914,-1.48191
block_1,9157,9,13408,1,-150.61,-124.043,6.66477,-150.61,-1.48192
block_1,9158,9,13409,1,-168.708,-139.304,5.98325,-168.708,-1.53705
block_1,9159,9,13410,1,-168.369,-138.674,6.0128,-168.369,-1.53705
block_1,9160,9,13411,1,-187.255,-155.391,5.21037,-187.255,-1.58619
block_1,9161,9,13412,1,-186.883,-154.701,5.23636,-186.883,-1.58619
block_1,9162,9,13413,1,-205.134,-170.235,4.42517,-205.134,-1.62873
block_1,9163,9,13414,1,-204.727,-169.479,4.44724,-204.727,-1.62873
block_1,9164,9,13415,1,-186.509,-154.008,5.26235,-186.509,-1.5862
block_1,9165,9,13416,1,-186.134,-153.311,5.28834,-186.134,-1.58621
block_1,9166,9,13417,1,-204.318,-168.719,4.46932,-204.318,-1.62874
block_1,9167,9,13418,1,-203.907,-167.956,4.4914,-203.907,-1.62875
block_1,9168,9,13419,1,-150.305,-123.476,6.69753,-150.305,-1.48193
block_1,9169,9,13420,1,-149.998,-122.906,6.73028,-149.998,-1.48193
block_1,9170,9,13421,1,-168.028,-138.04,6.04236,-168.028,-1.53706
block_1,9171,9,13422,1,-167.685,-137.403,6.07191,-167.685,-1.53707
block_1,9172,9,13423,1,-149.69,-122.334,6.76304,-149.69,-1.48194
block_1,9173,9,13424,1,-149.38,-121.759,6.79579,-149.38,-1.48194
block_1,9174,9,13425,1,-167.34,-136.763,6.10146,-167.34,-1.53707
block_1,9175,9,13426,1,-166.994,-136.12,6.13101,-166.994,-1.53708
block_1,9176,9,13427,1,-185.757,-152.611,5.31434,-185.757,-1.58621
block_1,9177,9,13428,1,-185.378,-151.907,5.34033,-185.378,-1.58622
block_1,9178,9,13429,1,-203.494,-167.189,4.51347,-203.494,-1.62875
block_1,9179,9,13430,1,-203.079,-166.418,4.53555,-203.079,-1.62876
block_1,9180,9,13431,1,-184.997,-151.2,5.36632,-184.997,-1.58623
block_1,9181,9,13432,1,-184.614,-150.489,5.39231,-184.614,-1.58623
block_1,9182,9,13433,1,-202.661,-165.643,4.55762,-202.661,-1.62876
block_1,9183,9,13434,1,-202.242,-164.865,4.5797,-202.242,-1.62877
block_1,9184,9,13435,1,-223.022,-185.086,3.56854,-223.022,-1.66402
block_1,9185,9,13436,1,-222.579,-184.264,3.58635,-222.579,-1.66403
block_1,9186,9,13437,1,-240.918,-199.946,2.6405,-240.918,-1.69145
block_1,9187,9,13438,1,-240.44,-199.059,2.65368,-240.44,-1.69145
block_1,9188,9,13439,1,-222.135,-183.439,3.60415,-222.135,-1.66404
block_1,9189,9,13440,1,-221.688,-182.609,3.62196,-221.688,-1.66404
block_1,9190,9,13441,1,-239.96,-198.167,2.66686,-239.96,-1.69146
block_1,9191,9,13442,1,-239.477,-197.271,2.68003,-239.477,-1.69146
block_1,9192,9,13443,1,-258.824,-214.816,1.64104,-258.824,-1.71037
block_1,9193,9,13444,1,-258.311,-213.862,1.64923,-258.311,-1.71037
block_1,9194,9,13445,1,-276.741,-229.696,0.570152,-276.741,-1.72015
block_1,9195,9,13446,1,-276.192,-228.677,0.573007,-276.192,-1.72016
block_1,9196,9,13447,1,-257.795,-212.905,1.65742,-257.795,-1.71038
block_1,9197,9,13448,1,-257.277,-211.942,1.66562,-257.277,-1.71038
block_1,9198,9,13449,1,-275.641,-227.653,0.575861,-275.641,-1.72016
block_1,9199,9,13450,1,-275.086,-226.624,0.578715,-275.086,-1.72017
block_1,9200,9,13451,1,-221.239,-181.775,3.63976,-221.239,-1.66405
block_1,9201,9,13452,1,-220.787,-180.937,3.65757,-220.787,-1.66405
block_1,9202,9,13453,1,-238.992,-196.37,2.69321,-238.992,-1.69147
block_1,9203,9,13454,1,-238.505,-195.465,2.70639,-238.505,-1.69148
block_1,9204,9,13455,1,-220.334,-180.095,3.67537,-220.334,-1.66406
block_1,9205,9,13456,1,-219.878,-179.249,3.69318,-219.878,-1.66407
block_1,9206,9,13457,1,-238.015,-194.556,2.71956,-238.015,-1.69148
block_1,9207,9,13458,1,-237.523,-193.642,2.73274,-237.523,-1.69149
block_1,9208,9,13459,1,-256.756,-210.975,1.67381,-256.756,-1.71039
block_1,9209,9,13460,1,-256.232,-210.003,1.682,-256.232,-1.7104
block_1,9210,9,13461,1,-274.529,-225.59,0.581569,-274.529,-1.72018
block_1,9211,9,13462,1,-273.97,-224.551,0.584422,-273.97,-1.72018
block_1,9212,9,13463,1,-255.706,-209.026,1.6902,-255.706,-1.7104
block_1,9213,9,13464,1,-255.178,-208.044,1.69839,-255.178,-1.71041
block_1,9214,9,13465,1,-273.407,-223.507,0.587274,-273.407,-1.72019
block_1,9215,9,13466,1,-272.842,-222.457,0.590127,-272.842,-1.72019
block_1,9216,9,13467,1,-13.986,-6.98803,9.49874,-8.60938,-0.901095
block_1,9217,9,13468,1,-14.0063,-6.95424,9.54431,-8.59119,-0.901099
block_1,9218,9,13469,1,-26.4158,-21.2534,9.42491,-26.1581,-0.981409
block_1,9219,9,13470,1,-26.3624,-21.1513,9.47012,-26.1031,-0.981414
block_1,9220,9,13471,1,-14.0266,-6.92029,9.58987,-8.57291,-0.901103
block_1,9221,9,13472,1,-14.0469,-6.88618,9.63543,-8.55455,-0.901107
block_1,9222,9,13473,1,-26.3088,-21.0486,9.51533,-26.0478,-0.981419
block_1,9223,9,13474,1,-26.2549,-20.9455,9.56054,-25.9923,-0.981423
block_1,9224,9,13475,1,-43.7079,-35.5199,9.27681,-43.7079,-1.06078
block_1,9225,9,13476,1,-43.6161,-35.3494,9.32131,-43.6161,-1.06079
block_1,9226,9,13477,1,-61.2595,-49.7881,9.05444,-61.2595,-1.13858
block_1,9227,9,13478,1,-61.1309,-49.5492,9.09787,-61.1309,-1.13859
block_1,9228,9,13479,1,-43.5238,-35.178,9.36581,-43.5238,-1.06079
block_1,9229,9,13480,1,-43.4311,-35.0059,9.41031,-43.4311,-1.0608
block_1,9230,9,13481,1,-61.0016,-49.3092,9.1413,-61.0016,-1.13859
block_1,9231,9,13482,1,-60.8717,-49.068,9.18474,-60.8717,-1.1386
block_1,9232,9,13483,1,-14.0672,-6.8519,9.681,-8.5361,-0.901111
block_1,9233,9,13484,1,-14.0874,-6.81747,9.72656,-8.51756,-0.901116
block_1,9234,9,13485,1,-26.2008,-20.8419,9.60575,-25.9365,-0.981428
block_1,9235,9,13486,1,-26.1465,-20.7377,9.65096,-25.8804,-0.981432
block_1,9236,9,13487,1,-14.1077,-6.78287,9.77213,-8.49893,-0.90112
block_1,9237,9,13488,1,-14.128,-6.74811,9.81769,-8.48022,-0.901124
block_1,9238,9,13489,1,-26.092,-20.6331,9.69617,-25.8241,-0.981437
block_1,9239,9,13490,1,-26.0372,-20.528,9.74138,-25.7675,-0.981442
block_1,9240,9,13491,1,-43.3379,-34.8329,9.45481,-43.3379,-1.0608
block_1,9241,9,13492,1,-43.2443,-34.6591,9.4993,-43.2443,-1.06081
block_1,9242,9,13493,1,-60.7412,-48.8256,9.22817,-60.7412,-1.1386
block_1,9243,9,13494,1,-60.61,-48.5822,9.2716,-60.61,-1.13861
block_1,9244,9,13495,1,-43.1503,-34.4845,9.5438,-43.1503,-1.06081
block_1,9245,9,13496,1,-43.0558,-34.309,9.5883,-43.0558,-1.06082
block_1,9246,9,13497,1,-60.4783,-48.3375,9.31503,-60.4783,-1.13861
block_1,9247,9,13498,1,-60.3459,-48.0918,9.35846,-60.3459,-1.13862
block_1,9248,9,13499,1,-78.8136,-64.0589,8.7578,-78.8136,-1.21418
block_1,9249,9,13500,1,-78.6481,-63.7516,8.79981,-78.6481,-1.21419
block_1,9250,9,13501,1,-96.3708,-78.3328,8.38689,-96.3708,-1.28695
block_1,9251,9,13502,1,-96.1685,-77.9571,8.42712,-96.1685,-1.28695
block_1,9252,9,13503,1,-78.4818,-63.4428,8.84182,-78.4818,-1.21419
block_1,9253,9,13504,1,-78.3147,-63.1326,8.88383,-78.3147,-1.2142
block_1,9254,9,13505,1,-95.9652,-77.5796,8.46735,-95.9652,-1.28696
block_1,9255,9,13506,1,-95.761,-77.2004,8.50758,-95.761,-1.28696
block_1,9256,9,13507,1,-113.932,-92.6105,7.94171,-113.932,-1.35625
block_1,9257,9,13508,1,-113.693,-92.1665,7.97981,-113.693,-1.35626
block_1,9258,9,13509,1,-131.498,-106.893,7.42227,-131.498,-1.42146
block_1,9259,9,13510,1,-131.222,-106.381,7.45787,-131.222,-1.42147
block_1,9260,9,13511,1,-113.453,-91.7204,8.0179,-113.453,-1.35626
block_1,9261,9,13512,1,-113.211,-91.2721,8.056,-113.211,-1.35627
block_1,9262,9,13513,1,-130.944,-105.866,7.49347,-130.944,-1.42147
block_1,9263,9,13514,1,-130.666,-105.348,7.52907,-130.666,-1.42148
block_1,9264,9,13515,1,-78.1469,-62.8209,8.92584,-78.1469,-1.2142
block_1,9265,9,13516,1,-77.9782,-62.5077,8.96784,-77.9782,-1.21421
block_1,9266,9,13517,1,-95.5558,-76.8194,8.54781,-95.5558,-1.28697
block_1,9267,9,13518,1,-95.3496,-76.4365,8.58804,-95.3496,-1.28698
block_1,9268,9,13519,1,-77.8088,-62.1931,9.00985,-77.8088,-1.21421
block_1,9269,9,13520,1,-77.6385,-61.877,9.05186,-77.6385,-1.21422
block_1,9270,9,13521,1,-95.1424,-76.0519,8.62827,-95.1424,-1.28698
block_1,9271,9,13522,1,-94.9343,-75.6654,8.6685,-94.9343,-1.28699
block_1,9272,9,13523,1,-112.969,-90.8217,8.09409,-112.969,-1.35627
block_1,9273,9,13524,1,-112.725,-90.3692,8.13218,-112.725,-1.35628
block_1,9274,9,13525,1,-130.386,-104.829,7.56468,-130.386,-1.42149
block_1,9275,9,13526,1,-130.105,-104.306,7.60028,-130.105,-1.42149
block_1,9276,9,13527,1,-112.48,-89.9145,8.17028,-112.48,-1.35629
block_1,9277,9,13528,1,-112.234,-89.4577,8.20837,-112.234,-1.35629
block_1,9278,9,13529,1,-129.822,-103.782,7.63588,-129.822,-1.4215
block_1,9279,9,13530,1,-129.538,-103.255,7.67148,-129.538,-1.4215
block_1,9280,9,13531,1,-14.1482,-6.71319,9.86326,-8.46142,-0.901129
block_1,9281,9,13532,1,-14.1685,-6.6781,9.90882,-8.44253,-0.901133
block_1,9282,9,13533,1,-25.9821,-20.4224,9.78659,-25.7106,-0.981446
block_1,9283,9,13534,1,-25.9269,-20.3164,9.8318,-25.6535,-0.981451
block_1,9284,9,13535,1,-14.1887,-6.64285,9.95439,-8.42356,-0.901137
block_1,9285,9,13536,1,-14.2089,-6.60744,9.99996,-8.4045,-0.901142
block_1,9286,9,13537,1,-25.8714,-20.2098,9.87701,-25.5961,-0.981456
block_1,9287,9,13538,1,-25.8157,-20.1028,9.92222,-25.5385,-0.98146
block_1,9288,9,13539,1,-42.9609,-34.1328,9.6328,-42.9609,-1.06082
block_1,9289,9,13540,1,-42.8656,-33.9557,9.6773,-42.8656,-1.06083
block_1,9290,9,13541,1,-60.213,-47.8449,9.4019,-60.213,-1.13862
block_1,9291,9,13542,1,-60.0794,-47.5968,9.44533,-60.0794,-1.13863
block_1,9292,9,13543,1,-42.7698,-33.7778,9.7218,-42.7698,-1.06083
block_1,9293,9,13544,1,-42.6735,-33.5991,9.7663,-42.6735,-1.06084
block_1,9294,9,13545,1,-59.9452,-47.3476,9.48876,-59.9452,-1.13864
block_1,9295,9,13546,1,-59.8104,-47.0973,9.5322,-59.8104,-1.13864
block_1,9296,9,13547,1,-14.2291,-6.57187,10.0455,-8.38535,-0.901146
block_1,9297,9,13548,1,-14.2493,-6.53614,10.0911,-8.36611,-0.901151
block_1,9298,9,13549,1,-25.7597,-19.9952,9.96744,-25.4806,-0.981465
block_1,9299,9,13550,1,-25.7035,-19.8872,10.0126,-25.4224,-0.98147
block_1,9300,9,13551,1,-14.2695,-6.50024,10.1367,-8.34679,-0.901155
block_1,9301,9,13552,1,-14.2897,-6.46418,10.1822,-8.32738,-0.90116
block_1,9302,9,13553,1,-25.6471,-19.7786,10.0579,-25.364,-0.981475
block_1,9303,9,13554,1,-25.5904,-19.6696,10.1031,-25.3053,-0.981479
block_1,9304,9,13555,1,-42.5769,-33.4196,9.81081,-42.5769,-1.06084
block_1,9305,9,13556,1,-42.4798,-33.2393,9.85531,-42.4798,-1.06085
block_1,9306,9,13557,1,-59.6749,-46.8458,9.57563,-59.6749,-1.13865
block_1,9307,9,13558,1,-59.5389,-46.5931,9.61907,-59.5389,-1.13865
block_1,9308,9,13559,1,-42.3822,-33.0581,9.89981,-42.3822,-1.06085
block_1,9309,9,13560,1,-42.2842,-32.8762,9.94431,-42.2842,-1.06086
block_1,9310,9,13561,1,-59.4022,-46.3394,9.6625,-59.4022,-1.13866
block_1,9311,9,13562,1,-59.2649,-46.0844,9.70594,-59.2649,-1.13866
block_1,9312,9,13563,1,-77.4675,-61.5594,9.09387,-77.4675,-1.21423
block_1,9313,9,13564,1,-77.2957,-61.2404,9.13588,-77.2957,-1.21423
block_1,9314,9,13565,1,-94.7252,-75.2772,8.70873,-94.7252,-1.28699
block_1,9315,9,13566,1,-94.5152,-74.8871,8.74896,-94.5152,-1.287
block_1,9316,9,13567,1,-77.1231,-60.9199,9.17789,-77.1231,-1.21424
block_1,9317,9,13568,1,-76.9497,-60.5979,9.2199,-76.9497,-1.21424
block_1,9318,9,13569,1,-94.3041,-74.4953,8.78919,-94.3041,-1.287
block_1,9319,9,13570,1,-94.0921,-74.1017,8.82942,-94.0921,-1.28701
block_1,9320,9,13571,1,-111.987,-88.9988,8.24647,-111.987,-1.3563
block_1,9321,9,13572,1,-111.739,-88.5378,8.28456,-111.739,-1.3563
block_1,9322,9,13573,1,-129.253,-102.725,7.70709,-129.253,-1.42151
block_1,9323,9,13574,1,-128.967,-102.193,7.74269,-128.967,-1.42152
block_1,9324,9,13575,1,-111.489,-88.0746,8.32266,-111.489,-1.35631
block_1,9325,9,13576,1,-111.239,-87.6094,8.36075,-111.239,-1.35632
block_1,9326,9,13577,1,-128.679,-101.659,7.77829,-128.679,-1.42152
block_1,9327,9,13578,1,-128.39,-101.122,7.8139,-128.39,-1.42153
block_1,9328,9,13579,1,-76.7755,-60.2744,9.26191,-76.7755,-1.21425
block_1,9329,9,13580,1,-76.6005,-59.9495,9.30393,-76.6005,-1.21425
block_1,9330,9,13581,1,-93.8792,-73.7062,8.86965,-93.8792,-1.28702
block_1,9331,9,13582,1,-93.6653,-73.309,8.90988,-93.6653,-1.28702
block_1,9332,9,13583,1,-76.4247,-59.6231,9.34594,-76.4247,-1.21426
block_1,9333,9,13584,1,-76.2481,-59.2952,9.38795,-76.2481,-1.21426
block_1,9334,9,13585,1,-93.4504,-72.91,8.95012,-93.4504,-1.28703
block_1,9335,9,13586,1,-93.2345,-72.5091,8.99035,-93.2345,-1.28703
block_1,9336,9,13587,1,-110.987,-87.142,8.39885,-110.987,-1.35632
block_1,9337,9,13588,1,-110.734,-86.6724,8.43694,-110.734,-1.35633
block_1,9338,9,13589,1,-128.099,-100.582,7.8495,-128.099,-1.42154
block_1,9339,9,13590,1,-127.807,-100.04,7.88511,-127.807,-1.42154
block_1,9340,9,13591,1,-110.48,-86.2008,8.47504,-110.48,-1.35634
block_1,9341,9,13592,1,-110.225,-85.727,8.51314,-110.225,-1.35634
block_1,9342,9,13593,1,-127.514,-99.4962,7.92071,-127.514,-1.42155
block_1,9343,9,13594,1,-127.22,-98.9494,7.95631,-127.22,-1.42155
block_1,9344,9,13595,1,-149.069,-121.181,6.82855,-149.069,-1.48195
block_1,9345,9,13596,1,-148.756,-120.6,6.8613,-148.756,-1.48196
block_1,9346,9,13597,1,-166.646,-135.474,6.16056,-166.646,-1.53709
block_1,9347,9,13598,1,-166.296,-134.825,6.19011,-166.296,-1.53709
block_1,9348,9,13599,1,-148.442,-120.016,6.89406,-148.442,-1.48196
block_1,9349,9,13600,1,-148.126,-119.43,6.92681,-148.126,-1.48197
block_1,9350,9,13601,1,-165.945,-134.173,6.21966,-165.945,-1.5371
block_1,9351,9,13602,1,-165.592,-133.518,6.24921,-165.592,-1.5371
block_1,9352,9,13603,1,-184.23,-149.775,5.4183,-184.23,-1.58624
block_1,9353,9,13604,1,-183.843,-149.057,5.44429,-183.843,-1.58624
block_1,9354,9,13605,1,-201.821,-164.083,4.60178,-201.821,-1.62878
block_1,9355,9,13606,1,-201.398,-163.297,4.62385,-201.398,-1.62878
block_1,9356,9,13607,1,-183.455,-148.336,5.47029,-183.455,-1.58625
block_1,9357,9,13608,1,-183.065,-147.612,5.49628,-183.065,-1.58626
block_1,9358,9,13609,1,-200.972,-162.507,4.64593,-200.972,-1.62879
block_1,9359,9,13610,1,-200.545,-161.714,4.668,-200.545,-1.6288
block_1,9360,9,13611,1,-147.809,-118.841,6.95957,-147.809,-1.48197
block_1,9361,9,13612,1,-147.49,-118.249,6.99232,-147.49,-1.48198
block_1,9362,9,13613,1,-165.237,-132.859,6.27876,-165.237,-1.53711
block_1,9363,9,13614,1,-164.881,-132.198,6.30832,-164.881,-1.53712
block_1,9364,9,13615,1,-147.17,-117.654,7.02508,-147.17,-1.48199
block_1,9365,9,13616,1,-146.848,-117.057,7.05783,-146.848,-1.48199
block_1,9366,9,13617,1,-164.523,-131.533,6.33787,-164.523,-1.53712
block_1,9367,9,13618,1,-164.163,-130.865,6.36742,-164.163,-1.53713
block_1,9368,9,13619,1,-182.673,-146.884,5.52227,-182.673,-1.58626
block_1,9369,9,13620,1,-182.279,-146.153,5.54826,-182.279,-1.58627
block_1,9370,9,13621,1,-200.116,-160.917,4.69008,-200.116,-1.6288
block_1,9371,9,13622,1,-199.684,-160.116,4.71215,-199.684,-1.62881
block_1,9372,9,13623,1,-181.883,-145.418,5.57425,-181.883,-1.58628
block_1,9373,9,13624,1,-181.486,-144.68,5.60024,-181.486,-1.58628
block_1,9374,9,13625,1,-199.251,-159.311,4.73423,-199.251,-1.62881
block_1,9375,9,13626,1,-198.816,-158.503,4.7563,-198.816,-1.62882
block_1,9376,9,13627,1,-219.42,-178.399,3.71098,-219.42,-1.66407
block_1,9377,9,13628,1,-218.96,-177.545,3.72878,-218.96,-1.66408
block_1,9378,9,13629,1,-237.029,-192.724,2.74592,-237.029,-1.69149
block_1,9379,9,13630,1,-236.532,-191.801,2.75909,-236.532,-1.6915
block_1,9380,9,13631,1,-218.498,-176.686,3.74659,-218.498,-1.66408
block_1,9381,9,13632,1,-218.033,-175.824,3.76439,-218.033,-1.66409
block_1,9382,9,13633,1,-236.032,-190.874,2.77227,-236.032,-1.69151
block_1,9383,9,13634,1,-235.531,-189.943,2.78544,-235.531,-1.69151
block_1,9384,9,13635,1,-254.646,-207.058,1.70658,-254.646,-1.71041
block_1,9385,9,13636,1,-254.113,-206.067,1.71477,-254.113,-1.71042
block_1,9386,9,13637,1,-272.274,-221.403,0.592979,-272.274,-1.7202
block_1,9387,9,13638,1,-271.704,-220.344,0.59583,-271.704,-1.7202
block_1,9388,9,13639,1,-253.576,-205.071,1.72296,-253.576,-1.71042
block_1,9389,9,13640,1,-253.037,-204.071,1.73116,-253.037,-1.71043
block_1,9390,9,13641,1,-271.131,-219.279,0.598681,-271.131,-1.72021
block_1,9391,9,13642,1,-270.555,-218.21,0.601532,-270.555,-1.72021
block_1,9392,9,13643,1,-217.567,-174.957,3.78219,-217.567,-1.6641
block_1,9393,9,13644,1,-217.098,-174.087,3.8,-217.098,-1.6641
block_1,9394,9,13645,1,-235.027,-189.007,2.79862,-235.027,-1.69152
block_1,9395,9,13646,1,-234.52,-188.066,2.81179,-234.52,-1.69152
block_1,9396,9,13647,1,-216.627,-173.212,3.8178,-216.627,-1.66411
block_1,9397,9,13648,1,-216.153,-172.333,3.8356,-216.153,-1.66412
block_1,9398,9,13649,1,-234.011,-187.122,2.82497,-234.011,-1.69153
block_1,9399,9,13650,1,-233.5,-186.173,2.83814,-233.5,-1.69154
block_1,9400,9,13651,1,-252.496,-203.066,1.73935,-252.496,-1.71044
block_1,9401,9,13652,1,-251.952,-202.056,1.74754,-251.952,-1.71044
block_1,9402,9,13653,1,-269.976,-217.135,0.604383,-269.976,-1.72022
block_1,9403,9,13654,1,-269.394,-216.055,0.607233,-269.394,-1.72023
block_1,9404,9,13655,1,-251.406,-201.041,1.75573,-251.406,-1.71045
block_1,9405,9,13656,1,-250.857,-200.022,1.76392,-250.857,-1.71045
block_1,9406,9,13657,1,-268.81,-214.971,0.610082,-268.81,-1.72023
block_1,9407,9,13658,1,-268.223,-213.881,0.612932,-268.223,-1.72024
block_1,9408,9,13659,1,-146.525,-116.457,7.09059,-146.525,-1.482
block_1,9409,9,13660,1,-146.2,-115.854,7.12334,-146.2,-1.48201
block_1,9410,9,13661,1,-163.802,-130.194,6.39697,-163.802,-1.53714
block_1,9411,9,13662,1,-163.439,-129.52,6.42652,-163.439,-1.53714
block_1,9412,9,13663,1,-145.874,-115.248,7.1561,-145.874,-1.48201
block_1,9413,9,13664,1,-145.546,-114.639,7.18886,-145.546,-1.48202
block_1,9414,9,13665,1,-163.074,-128.843,6.45607,-163.074,-1.53715
block_1,9415,9,13666,1,-162.708,-128.163,6.48563,-162.708,-1.53715
block_1,9416,9,13667,1,-181.086,-143.939,5.62623,-181.086,-1.58629
block_1,9417,9,13668,1,-180.685,-143.194,5.65223,-180.685,-1.58629
block_1,9418,9,13669,1,-198.378,-157.69,4.77838,-198.378,-1.62883
block_1,9419,9,13670,1,-197.939,-156.874,4.80045,-197.939,-1.62883
block_1,9420,9,13671,1,-180.282,-142.445,5.67822,-180.282,-1.5863
block_1,9421,9,13672,1,-179.877,-141.693,5.70421,-179.877,-1.58631
block_1,9422,9,13673,1,-197.497,-156.055,4.82253,-197.497,-1.62884
block_1,9423,9,13674,1,-197.054,-155.231,4.84461,-197.054,-1.62885
block_1,9424,9,13675,1,-145.217,-114.028,7.22161,-145.217,-1.48203
block_1,9425,9,13676,1,-144.886,-113.414,7.25437,-144.886,-1.48203
block_1,9426,9,13677,1,-162.34,-127.48,6.51518,-162.34,-1.53716
block_1,9427,9,13678,1,-161.97,-126.793,6.54473,-161.97,-1.53717
block_1,9428,9,13679,1,-144.554,-112.797,7.28712,-144.554,-1.48204
block_1,9429,9,13680,1,-144.22,-112.177,7.31988,-144.22,-1.48204
block_1,9430,9,13681,1,-161.599,-126.104,6.57428,-161.599,-1.53717
block_1,9431,9,13682,1,-161.226,-125.411,6.60383,-161.226,-1.53718
block_1,9432,9,13683,1,-179.47,-140.938,5.7302,-179.47,-1.58631
block_1,9433,9,13684,1,-179.062,-140.179,5.75619,-179.062,-1.58632
block_1,9434,9,13685,1,-196.608,-154.404,4.86668,-196.608,-1.62885
block_1,9435,9,13686,1,-196.161,-153.573,4.88876,-196.161,-1.62886
block_1,9436,9,13687,1,-178.651,-139.417,5.78218,-178.651,-1.58633
block_1,9437,9,13688,1,-178.239,-138.652,5.80817,-178.239,-1.58633
block_1,9438,9,13689,1,-195.711,-152.738,4.91083,-195.711,-1.62887
block_1,9439,9,13690,1,-195.259,-151.899,4.9329,-195.259,-1.62887
block_1,9440,9,13691,1,-215.678,-171.45,3.85341,-215.678,-1.66412
block_1,9441,9,13692,1,-215.2,-170.563,3.87121,-215.2,-1.66413
block_1,9442,9,13693,1,-232.987,-185.219,2.85132,-232.987,-1.69154
block_1,9443,9,13694,1,-232.471,-184.261,2.86449,-232.471,-1.69155
block_1,9444,9,13695,1,-214.72,-169.672,3.88901,-214.72,-1.66413
block_1,9445,9,13696,1,-214.238,-168.777,3.90681,-214.238,-1.66414
block_1,9446,9,13697,1,-231.952,-183.299,2.87766,-231.952,-1.69156
block_1,9447,9,13698,1,-231.432,-182.332,2.89084,-231.432,-1.69156
block_1,9448,9,13699,1,-250.305,-198.997,1.77211,-250.305,-1.71046
block_1,9449,9,13700,1,-249.751,-197.968,1.7803,-249.751,-1.71047
block_1,9450,9,13701,1,-267.634,-212.786,0.615781,-267.634,-1.72024
block_1,9451,9,13702,1,-267.041,-211.686,0.618629,-267.041,-1.72025
block_1,9452,9,13703,1,-249.194,-196.935,1.78849,-249.194,-1.71047
block_1,9453,9,13704,1,-248.635,-195.896,1.79667,-248.635,-1.71048
block_1,9454,9,13705,1,-266.446,-210.581,0.621477,-266.446,-1.72025
block_1,9455,9,13706,1,-265.848,-209.471,0.624325,-265.848,-1.72026
block_1,9456,9,13707,1,-213.754,-167.878,3.92462,-213.754,-1.66415
block_1,9457,9,13708,1,-213.268,-166.975,3.94242,-213.268,-1.66415
block_1,9458,9,13709,1,-230.909,-181.361,2.90401,-230.909,-1.69157
block_1,9459,9,13710,1,-230.383,-180.385,2.91719,-230.383,-1.69157
block_1,9460,9,13711,1,-212.779,-166.067,3.96022,-212.779,-1.66416
block_1,9461,9,13712,1,-212.288,-165.156,3.97802,-212.288,-1.66417
block_1,9462,9,13713,1,-229.856,-179.405,2.93036,-229.856,-1.69158
block_1,9463,9,13714,1,-229.325,-178.421,2.94353,-229.325,-1.69159
block_1,9464,9,13715,1,-248.073,-194.853,1.80486,-248.073,-1.71048
block_1,9465,9,13716,1,-247.509,-193.805,1.81305,-247.509,-1.71049
block_1,9466,9,13717,1,-265.248,-208.356,0.627173,-265.248,-1.72027
block_1,9467,9,13718,1,-264.644,-207.236,0.63002,-264.644,-1.72027
block_1,9468,9,13719,1,-246.942,-192.753,1.82124,-246.942,-1.7105
block_1,9469,9,13720,1,-246.372,-191.695,1.82943,-246.372,-1.7105
block_1,9470,9,13721,1,-264.038,-206.11,0.632867,-264.038,-1.72028
block_1,9471,9,13722,1,-263.43,-204.98,0.635713,-263.43,-1.72028
block_1,9472,9,13723,1,-14.3099,-6.42796,10.2278,-8.30788,-0.901164
block_1,9473,9,13724,1,-14.3301,-6.39157,10.2734,-8.28829,-0.901169
block_1,9474,9,13725,1,-25.5335,-19.5601,10.1483,-25.2463,-0.981484
block_1,9475,9,13726,1,-25.4764,-19.4501,10.1935,-25.1871,-0.981489
block_1,9476,9,13727,1,-14.3502,-6.35503,10.3189,-8.26862,-0.901173
block_1,9477,9,13728,1,-14.3704,-6.31832,10.3645,-8.24886,-0.901178
block_1,9478,9,13729,1,-25.4191,-19.3397,10.2387,-25.1276,-0.981494
block_1,9479,9,13730,1,-25.3615,-19.2287,10.2839,-25.0678,-0.981499
block_1,9480,9,13731,1,-42.1858,-32.6934,9.98881,-42.1858,-1.06086
block_1,9481,9,13732,1,-42.0869,-32.5098,10.0333,-42.0869,-1.06087
block_1,9482,9,13733,1,-59.127,-45.8284,9.74937,-59.127,-1.13867
block_1,9483,9,13734,1,-58.9885,-45.5712,9.79281,-58.9885,-1.13867
block_1,9484,9,13735,1,-41.9876,-32.3253,10.0778,-41.9876,-1.06087
block_1,9485,9,13736,1,-41.8879,-32.1401,10.1223,-41.8879,-1.06088
block_1,9486,9,13737,1,-58.8494,-45.3128,9.83624,-58.8494,-1.13868
block_1,9487,9,13738,1,-58.7097,-45.0533,9.87968,-58.7097,-1.13868
block_1,9488,9,13739,1,-14.3905,-6.28145,10.4101,-8.22901,-0.901182
block_1,9489,9,13740,1,-14.4106,-6.24441,10.4556,-8.20908,-0.901187
block_1,9490,9,13741,1,-25.3037,-19.1172,10.3291,-25.0078,-0.981504
block_1,9491,9,13742,1,-25.2457,-19.0053,10.3744,-24.9475,-0.981509
block_1,9492,9,13743,1,-14.4307,-6.20722,10.5012,-8.18906,-0.901191
block_1,9493,9,13744,1,-14.4508,-6.16986,10.5468,-8.16895,-0.901196
block_1,9494,9,13745,1,-25.1874,-18.8928,10.4196,-24.887,-0.981514
block_1,9495,9,13746,1,-25.1289,-18.7799,10.4648,-24.8262,-0.981519
block_1,9496,9,13747,1,-41.7877,-31.9541,10.1668,-41.7877,-1.06088
block_1,9497,9,13748,1,-41.687,-31.7672,10.2113,-41.687,-1.06089
block_1,9498,9,13749,1,-58.5693,-44.7927,9.92311,-58.5693,-1.13869
block_1,9499,9,13750,1,-58.4283,-44.5309,9.96655,-58.4283,-1.1387
block_1,9500,9,13751,1,-41.586,-31.5795,10.2558,-41.586,-1.06089
block_1,9501,9,13752,1,-41.4845,-31.391,10.3003,-41.4845,-1.0609
block_1,9502,9,13753,1,-58.2867,-44.268,10.01,-58.2867,-1.1387
block_1,9503,9,13754,1,-58.1445,-44.0039,10.0534,-58.1445,-1.13871
block_1,9504,9,13755,1,-76.0708,-58.9659,9.42996,-76.0708,-1.21427
block_1,9505,9,13756,1,-75.8926,-58.635,9.47197,-75.8926,-1.21428
block_1,9506,9,13757,1,-93.0177,-72.1065,9.03058,-93.0177,-1.28704
block_1,9507,9,13758,1,-92.7999,-71.7021,9.07081,-92.7999,-1.28705
block_1,9508,9,13759,1,-75.7137,-58.3027,9.51398,-75.7137,-1.21428
block_1,9509,9,13760,1,-75.5339,-57.969,9.556,-75.5339,-1.21429
block_1,9510,9,13761,1,-92.5811,-71.2959,9.11105,-92.5811,-1.28705
block_1,9511,9,13762,1,-92.3614,-70.8879,9.15128,-92.3614,-1.28706
block_1,9512,9,13763,1,-109.968,-85.2511,8.55123,-109.968,-1.35635
block_1,9513,9,13764,1,-109.711,-84.7731,8.58933,-109.711,-1.35635
block_1,9514,9,13765,1,-126.924,-98.4003,7.99192,-126.924,-1.42156
block_1,9515,9,13766,1,-126.627,-97.8486,8.02752,-126.627,-1.42157
block_1,9516,9,13767,1,-109.452,-84.2929,8.62743,-109.452,-1.35636
block_1,9517,9,13768,1,-109.193,-83.8106,8.66552,-109.193,-1.35637
block_1,9518,9,13769,1,-126.328,-97.2945,8.06313,-126.328,-1.42157
block_1,9519,9,13770,1,-126.029,-96.738,8.09873,-126.029,-1.42158
block_1,9520,9,13771,1,-75.3534,-57.6338,9.59801,-75.3534,-1.21429
block_1,9521,9,13772,1,-75.1721,-57.2971,9.64002,-75.1721,-1.2143
block_1,9522,9,13773,1,-92.1407,-70.478,9.19151,-92.1407,-1.28706
block_1,9523,9,13774,1,-91.919,-70.0664,9.23174,-91.919,-1.28707
block_1,9524,9,13775,1,-74.99,-56.9589,9.68204,-74.99,-1.21431
block_1,9525,9,13776,1,-74.8071,-56.6192,9.72405,-74.8071,-1.21431
block_1,9526,9,13777,1,-91.6964,-69.653,9.27198,-91.6964,-1.28708
block_1,9527,9,13778,1,-91.4728,-69.2378,9.31221,-91.4728,-1.28708
block_1,9528,9,13779,1,-108.932,-83.3262,8.70362,-108.932,-1.35637
block_1,9529,9,13780,1,-108.67,-82.8397,8.74172,-108.67,-1.35638
block_1,9530,9,13781,1,-125.728,-96.179,8.13434,-125.728,-1.42159
block_1,9531,9,13782,1,-125.425,-95.6175,8.16994,-125.425,-1.42159
block_1,9532,9,13783,1,-108.407,-82.351,8.77982,-108.407,-1.35639
block_1,9533,9,13784,1,-108.142,-81.8602,8.81791,-108.142,-1.35639
block_1,9534,9,13785,1,-125.122,-95.0536,8.20555,-125.122,-1.4216
block_1,9535,9,13786,1,-124.817,-94.4873,8.24115,-124.817,-1.42161
block_1,9536,9,13787,1,-14.4709,-6.13233,10.5924,-8.14875,-0.901201
block_1,9537,9,13788,1,-14.4909,-6.09465,10.6379,-8.12846,-0.901205
block_1,9538,9,13789,1,-25.0702,-18.6665,10.51,-24.7651,-0.981524
block_1,9539,9,13790,1,-25.0113,-18.5526,10.5552,-24.7038,-0.981529
block_1,9540,9,13791,1,-14.511,-6.0568,10.6835,-8.10809,-0.90121
block_1,9541,9,13792,1,-14.531,-6.01879,10.7291,-8.08763,-0.901215
block_1,9542,9,13793,1,-24.9521,-18.4382,10.6004,-24.6422,-0.981534
block_1,9543,9,13794,1,-24.8927,-18.3233,10.6457,-24.5803,-0.981539
block_1,9544,9,13795,1,-41.3825,-31.2017,10.3448,-41.3825,-1.0609
block_1,9545,9,13796,1,-41.2801,-31.0115,10.3893,-41.2801,-1.06091
block_1,9546,9,13797,1,-58.0017,-43.7387,10.0969,-58.0017,-1.13871
block_1,9547,9,13798,1,-57.8583,-43.4723,10.1403,-57.8583,-1.13872
block_1,9548,9,13799,1,-41.1773,-30.8206,10.4339,-41.1773,-1.06092
block_1,9549,9,13800,1,-41.074,-30.6288,10.4784,-41.074,-1.06092
block_1,9550,9,13801,1,-57.7142,-43.2048,10.1837,-57.7142,-1.13872
block_1,9551,9,13802,1,-57.5695,-42.9361,10.2272,-57.5695,-1.13873
block_1,9552,9,13803,1,-14.5511,-5.98062,10.7746,-8.06709,-0.901219
block_1,9553,9,13804,1,-14.5711,-5.94229,10.8202,-8.04645,-0.901224
block_1,9554,9,13805,1,-24.8331,-18.2079,10.6909,-24.5182,-0.981544
block_1,9555,9,13806,1,-24.7733,-18.092,10.7361,-24.4558,-0.981549
block_1,9556,9,13807,1,-14.5911,-5.90379,10.8658,-8.02573,-0.901229
block_1,9557,9,13808,1,-14.611,-5.86513,10.9114,-8.00492,-0.901234
block_1,9558,9,13809,1,-24.7132,-17.9757,10.7813,-24.3931,-0.981554
block_1,9559,9,13810,1,-24.6529,-17.8588,10.8265,-24.3302,-0.981559
block_1,9560,9,13811,1,-40.9703,-30.4362,10.5229,-40.9703,-1.06093
block_1,9561,9,13812,1,-40.8662,-30.2428,10.5674,-40.8662,-1.06093
block_1,9562,9,13813,1,-57.4243,-42.6663,10.2706,-57.4243,-1.13874
block_1,9563,9,13814,1,-57.2784,-42.3954,10.3141,-57.2784,-1.13874
block_1,9564,9,13815,1,-40.7616,-30.0486,10.6119,-40.7616,-1.06094
block_1,9565,9,13816,1,-40.6566,-29.8536,10.6564,-40.6566,-1.06094
block_1,9566,9,13817,1,-57.1318,-42.1233,10.3575,-57.1318,-1.13875
block_1,9567,9,13818,1,-56.9847,-41.8501,10.4009,-56.9847,-1.13875
block_1,9568,9,13819,1,-74.6234,-56.2781,9.76606,-74.6234,-1.21432
block_1,9569,9,13820,1,-74.4389,-55.9355,9.80808,-74.4389,-1.21432
block_1,9570,9,13821,1,-91.2482,-68.8208,9.35245,-91.2482,-1.28709
block_1,9571,9,13822,1,-91.0227,-68.4019,9.39268,-91.0227,-1.2871
block_1,9572,9,13823,1,-74.2536,-55.5915,9.85009,-74.2536,-1.21433
block_1,9573,9,13824,1,-74.0675,-55.2459,9.89211,-74.0675,-1.21434
block_1,9574,9,13825,1,-90.7962,-67.9813,9.43292,-90.7962,-1.2871
block_1,9575,9,13826,1,-90.5687,-67.5589,9.47315,-90.5687,-1.28711
block_1,9576,9,13827,1,-107.877,-81.3673,8.85601,-107.877,-1.3564
block_1,9577,9,13828,1,-107.61,-80.8723,8.89411,-107.61,-1.3564
block_1,9578,9,13829,1,-124.51,-93.9184,8.27676,-124.51,-1.42161
block_1,9579,9,13830,1,-124.203,-93.3472,8.31237,-124.203,-1.42162
block_1,9580,9,13831,1,-107.343,-80.3751,8.93221,-107.343,-1.35641
block_1,9581,9,13832,1,-107.074,-79.8758,8.97031,-107.074,-1.35642
block_1,9582,9,13833,1,-123.894,-92.7735,8.34797,-123.894,-1.42163
block_1,9583,9,13834,1,-123.583,-92.1973,8.38358,-123.583,-1.42163
block_1,9584,9,13835,1,-73.8807,-54.8989,9.93412,-73.8807,-1.21434
block_1,9585,9,13836,1,-73.693,-54.5505,9.97614,-73.693,-1.21435
block_1,9586,9,13837,1,-90.3402,-67.1347,9.51338,-90.3402,-1.28711
block_1,9587,9,13838,1,-90.1108,-66.7087,9.55362,-90.1108,-1.28712
block_1,9588,9,13839,1,-73.5046,-54.2005,10.0182,-73.5046,-1.21435
block_1,9589,9,13840,1,-73.3153,-53.8491,10.0602,-73.3153,-1.21436
block_1,9590,9,13841,1,-89.8805,-66.2809,9.59386,-89.8805,-1.28713
block_1,9591,9,13842,1,-89.6491,-65.8513,9.63409,-89.6491,-1.28713
block_1,9592,9,13843,1,-106.804,-79.3744,9.00841,-106.804,-1.35642
block_1,9593,9,13844,1,-106.533,-78.8708,9.0465,-106.533,-1.35643
block_1,9594,9,13845,1,-123.272,-91.6187,8.41918,-123.272,-1.42164
block_1,9595,9,13846,1,-122.959,-91.0376,8.45479,-122.959,-1.42165
block_1,9596,9,13847,1,-106.26,-78.3652,9.0846,-106.26,-1.35644
block_1,9597,9,13848,1,-105.987,-77.8574,9.1227,-105.987,-1.35644
block_1,9598,9,13849,1,-122.645,-90.454,8.4904,-122.645,-1.42165
block_1,9599,9,13850,1,-122.329,-89.8681,8.526,-122.329,-1.42166
block_1,9600,9,13851,1,-143.885,-111.555,7.35264,-143.885,-1.48205
block_1,9601,9,13852,1,-143.548,-110.929,7.38539,-143.548,-1.48206
block_1,9602,9,13853,1,-160.851,-124.715,6.63338,-160.851,-1.53719
block_1,9603,9,13854,1,-160.475,-124.016,6.66294,-160.475,-1.53719
block_1,9604,9,13855,1,-143.21,-110.301,7.41815,-143.21,-1.48206
block_1,9605,9,13856,1,-142.87,-109.671,7.4509,-142.87,-1.48207
block_1,9606,9,13857,1,-160.097,-123.314,6.69249,-160.097,-1.5372
block_1,9607,9,13858,1,-159.717,-122.609,6.72204,-159.717,-1.53721
block_1,9608,9,13859,1,-177.825,-137.882,5.83417,-177.825,-1.58634
block_1,9609,9,13860,1,-177.409,-137.11,5.86016,-177.409,-1.58635
block_1,9610,9,13861,1,-194.806,-151.057,4.95498,-194.806,-1.62888
block_1,9611,9,13862,1,-194.35,-150.211,4.97705,-194.35,-1.62889
block_1,9612,9,13863,1,-176.991,-136.334,5.88615,-176.991,-1.58635
block_1,9613,9,13864,1,-176.571,-135.555,5.91214,-176.571,-1.58636
block_1,9614,9,13865,1,-193.892,-149.361,4.99913,-193.892,-1.62889
block_1,9615,9,13866,1,-193.433,-148.508,5.0212,-193.433,-1.6289
block_1,9616,9,13867,1,-142.529,-109.037,7.48366,-142.529,-1.48208
block_1,9617,9,13868,1,-142.186,-108.401,7.51642,-142.186,-1.48208
block_1,9618,9,13869,1,-159.336,-121.901,6.75159,-159.336,-1.53721
block_1,9619,9,13870,1,-158.953,-121.19,6.78114,-158.953,-1.53722
block_1,9620,9,13871,1,-141.842,-107.762,7.54918,-141.842,-1.48209
block_1,9621,9,13872,1,-141.496,-107.12,7.58193,-141.496,-1.4821
block_1,9622,9,13873,1,-158.568,-120.476,6.8107,-158.568,-1.53723
block_1,9623,9,13874,1,-158.182,-119.758,6.84025,-158.182,-1.53723
block_1,9624,9,13875,1,-176.15,-134.772,5.93813,-176.15,-1.58637
block_1,9625,9,13876,1,-175.726,-133.986,5.96412,-175.726,-1.58637
block_1,9626,9,13877,1,-192.971,-147.65,5.04328,-192.971,-1.62891
block_1,9627,9,13878,1,-192.507,-146.789,5.06535,-192.507,-1.62891
block_1,9628,9,13879,1,-175.301,-133.196,5.99011,-175.301,-1.58638
block_1,9629,9,13880,1,-174.874,-132.403,6.01611,-174.874,-1.58639
block_1,9630,9,13881,1,-192.042,-145.924,5.08743,-192.042,-1.62892
block_1,9631,9,13882,1,-191.574,-145.056,5.1095,-191.574,-1.62893
block_1,9632,9,13883,1,-211.795,-164.24,3.99583,-211.795,-1.66417
block_1,9633,9,13884,1,-211.3,-163.32,4.01363,-211.3,-1.66418
block_1,9634,9,13885,1,-228.793,-177.432,2.9567,-228.793,-1.69159
block_1,9635,9,13886,1,-228.258,-176.438,2.96988,-228.258,-1.6916
block_1,9636,9,13887,1,-210.802,-162.397,4.03143,-210.802,-1.66419
block_1,9637,9,13888,1,-210.302,-161.469,4.04923,-210.302,-1.66419
block_1,9638,9,13889,1,-227.721,-175.441,2.98305,-227.721,-1.69161
block_1,9639,9,13890,1,-227.181,-174.439,2.99622,-227.181,-1.69161
block_1,9640,9,13891,1,-245.8,-190.633,1.83762,-245.8,-1.71051
block_1,9641,9,13892,1,-245.226,-189.566,1.8458,-245.226,-1.71051
block_1,9642,9,13893,1,-262.818,-203.845,0.638559,-262.818,-1.72029
block_1,9643,9,13894,1,-262.204,-202.704,0.641405,-262.204,-1.7203
block_1,9644,9,13895,1,-244.649,-188.494,1.85399,-244.649,-1.71052
block_1,9645,9,13896,1,-244.069,-187.418,1.86218,-244.069,-1.71053
block_1,9646,9,13897,1,-261.587,-201.558,0.64425,-261.587,-1.7203
block_1,9647,9,13898,1,-260.967,-200.408,0.647095,-260.967,-1.72031
block_1,9648,9,13899,1,-209.8,-160.537,4.06703,-209.8,-1.6642
block_1,9649,9,13900,1,-209.296,-159.601,4.08483,-209.296,-1.66421
block_1,9650,9,13901,1,-226.639,-173.432,3.00939,-226.639,-1.69162
block_1,9651,9,13902,1,-226.094,-172.421,3.02256,-226.094,-1.69163
block_1,9652,9,13903,1,-208.79,-158.661,4.10263,-208.79,-1.66421
block_1,9653,9,13904,1,-208.282,-157.716,4.12043,-208.282,-1.66422
block_1,9654,9,13905,1,-225.548,-171.406,3.03574,-225.548,-1.69163
block_1,9655,9,13906,1,-224.998,-170.386,3.04891,-224.998,-1.69164
block_1,9656,9,13907,1,-243.487,-186.337,1.87036,-243.487,-1.71053
block_1,9657,9,13908,1,-242.902,-185.251,1.87855,-242.902,-1.71054
block_1,9658,9,13909,1,-260.345,-199.252,0.649939,-260.345,-1.72031
block_1,9659,9,13910,1,-259.72,-198.091,0.652783,-259.72,-1.72032
block_1,9660,9,13911,1,-242.315,-184.16,1.88673,-242.315,-1.71055
block_1,9661,9,13912,1,-241.725,-183.065,1.89492,-241.725,-1.71055
block_1,9662,9,13913,1,-259.092,-196.925,0.655627,-259.092,-1.72033
block_1,9663,9,13914,1,-258.461,-195.755,0.658471,-258.461,-1.72033
block_1,9664,9,13915,1,-141.149,-106.475,7.61469,-141.149,-1.4821
block_1,9665,9,13916,1,-140.8,-105.827,7.64745,-140.8,-1.48211
block_1,9666,9,13917,1,-157.794,-119.037,6.8698,-157.794,-1.53724
block_1,9667,9,13918,1,-157.404,-118.314,6.89935,-157.404,-1.53725
block_1,9668,9,13919,1,-140.45,-105.177,7.6802,-140.45,-1.48212
block_1,9669,9,13920,1,-140.098,-104.524,7.71296,-140.098,-1.48212
block_1,9670,9,13921,1,-157.012,-117.587,6.92891,-157.012,-1.53726
block_1,9671,9,13922,1,-156.619,-116.857,6.95846,-156.619,-1.53726
block_1,9672,9,13923,1,-174.445,-131.607,6.0421,-174.445,-1.58639
block_1,9673,9,13924,1,-174.014,-130.807,6.06809,-174.014,-1.5864
block_1,9674,9,13925,1,-191.104,-144.183,5.13157,-191.104,-1.62893
block_1,9675,9,13926,1,-190.632,-143.307,5.15365,-190.632,-1.62894
block_1,9676,9,13927,1,-173.582,-130.003,6.09408,-173.582,-1.58641
block_1,9677,9,13928,1,-173.147,-129.196,6.12007,-173.147,-1.58642
block_1,9678,9,13929,1,-190.158,-142.427,5.17572,-190.158,-1.62895
block_1,9679,9,13930,1,-189.682,-141.543,5.1978,-189.682,-1.62895
block_1,9680,9,13931,1,-139.745,-103.868,7.74572,-139.745,-1.48213
block_1,9681,9,13932,1,-139.391,-103.21,7.77848,-139.391,-1.48214
block_1,9682,9,13933,1,-156.225,-116.124,6.98801,-156.225,-1.53727
block_1,9683,9,13934,1,-155.828,-115.388,7.01756,-155.828,-1.53728
block_1,9684,9,13935,1,-139.034,-102.548,7.81123,-139.034,-1.48215
block_1,9685,9,13936,1,-138.677,-101.884,7.84399,-138.677,-1.48215
block_1,9686,9,13937,1,-155.43,-114.648,7.04712,-155.43,-1.53728
block_1,9687,9,13938,1,-155.03,-113.906,7.07667,-155.03,-1.53729
block_1,9688,9,13939,1,-172.711,-128.386,6.14606,-172.711,-1.58642
block_1,9689,9,13940,1,-172.273,-127.573,6.17205,-172.273,-1.58643
block_1,9690,9,13941,1,-189.204,-140.656,5.21987,-189.204,-1.62896
block_1,9691,9,13942,1,-188.724,-139.765,5.24194,-188.724,-1.62897
block_1,9692,9,13943,1,-171.833,-126.755,6.19804,-171.833,-1.58644
block_1,9693,9,13944,1,-171.391,-125.935,6.22404,-171.391,-1.58644
block_1,9694,9,13945,1,-188.242,-138.87,5.26402,-188.242,-1.62897
block_1,9695,9,13946,1,-187.758,-137.971,5.28609,-187.758,-1.62898
block_1,9696,9,13947,1,-207.771,-156.768,4.13823,-207.771,-1.66423
block_1,9697,9,13948,1,-207.258,-155.816,4.15604,-207.258,-1.66423
block_1,9698,9,13949,1,-224.447,-169.362,3.06208,-224.447,-1.69165
block_1,9699,9,13950,1,-223.893,-168.333,3.07525,-223.893,-1.69165
block_1,9700,9,13951,1,-206.743,-154.859,4.17384,-206.743,-1.66424
block_1,9701,9,13952,1,-206.226,-153.899,4.19164,-206.226,-1.66425
block_1,9702,9,13953,1,-223.337,-167.3,3.08842,-223.337,-1.69166
block_1,9703,9,13954,1,-222.778,-166.263,3.10159,-222.778,-1.69167
block_1,9704,9,13955,1,-241.132,-181.965,1.9031,-241.132,-1.71056
block_1,9705,9,13956,1,-240.537,-180.86,1.91129,-240.537,-1.71057
block_1,9706,9,13957,1,-257.828,-194.579,0.661314,-257.828,-1.72034
block_1,9707,9,13958,1,-257.192,-193.397,0.664156,-257.192,-1.72034
block_1,9708,9,13959,1,-239.94,-179.751,1.91947,-239.94,-1.71057
block_1,9709,9,13960,1,-239.34,-178.636,1.92766,-239.34,-1.71058
block_1,9710,9,13961,1,-256.553,-192.211,0.666999,-256.553,-1.72035
block_1,9711,9,13962,1,-255.912,-191.02,0.66984,-255.912,-1.72036
block_1,9712,9,13963,1,-205.706,-152.934,4.20944,-205.706,-1.66425
block_1,9713,9,13964,1,-205.184,-151.965,4.22724,-205.184,-1.66426
block_1,9714,9,13965,1,-222.217,-165.221,3.11476,-222.217,-1.69167
block_1,9715,9,13966,1,-221.653,-164.174,3.12793,-221.653,-1.69168
block_1,9716,9,13967,1,-204.661,-150.992,4.24504,-204.661,-1.66427
block_1,9717,9,13968,1,-204.134,-150.015,4.26284,-204.134,-1.66428
block_1,9718,9,13969,1,-221.087,-163.124,3.1411,-221.087,-1.69169
block_1,9719,9,13970,1,-220.519,-162.069,3.15427,-220.519,-1.69169
block_1,9720,9,13971,1,-238.737,-177.517,1.93584,-238.737,-1.71059
block_1,9721,9,13972,1,-238.132,-176.393,1.94403,-238.132,-1.71059
block_1,9722,9,13973,1,-255.267,-189.824,0.672682,-255.267,-1.72036
block_1,9723,9,13974,1,-254.62,-188.622,0.675523,-254.62,-1.72037
block_1,9724,9,13975,1,-237.524,-175.265,1.95221,-237.524,-1.7106
block_1,9725,9,13976,1,-236.914,-174.131,1.96039,-236.914,-1.7106
block_1,9726,9,13977,1,-253.971,-187.416,0.678364,-253.971,-1.72037
block_1,9727,9,13978,1,-253.318,-186.205,0.681204,-253.318,-1.72038
block_1,9728,9,13979,1,-14.631,-5.82631,10.9569,-7.98403,-0.901239
block_1,9729,9,13980,1,-14.651,-5.78732,11.0025,-7.96305,-0.901243
block_1,9730,9,13981,1,-24.5924,-17.7415,10.8717,-24.267,-0.981565
block_1,9731,9,13982,1,-24.5317,-17.6237,10.917,-24.2036,-0.98157
block_1,9732,9,13983,1,-14.6709,-5.74817,11.0481,-7.94197,-0.901248
block_1,9733,9,13984,1,-14.6908,-5.70886,11.0937,-7.92082,-0.901253
block_1,9734,9,13985,1,-24.4707,-17.5053,10.9622,-24.1399,-0.981575
block_1,9735,9,13986,1,-24.4095,-17.3865,11.0074,-24.0759,-0.98158
block_1,9736,9,13987,1,-40.5511,-29.6577,10.7009,-40.5511,-1.06095
block_1,9737,9,13988,1,-40.4452,-29.461,10.7454,-40.4452,-1.06095
block_1,9738,9,13989,1,-56.837,-41.5757,10.4444,-56.837,-1.13876
block_1,9739,9,13990,1,-56.6886,-41.3002,10.4878,-56.6886,-1.13876
block_1,9740,9,13991,1,-40.3389,-29.2636,10.7899,-40.3389,-1.06096
block_1,9741,9,13992,1,-40.2321,-29.0652,10.8344,-40.2321,-1.06096
block_1,9742,9,13993,1,-56.5396,-41.0235,10.5313,-56.5396,-1.13877
block_1,9743,9,13994,1,-56.39,-40.7457,10.5747,-56.39,-1.13878
block_1,9744,9,13995,1,-14.7107,-5.66939,11.1392,-7.89957,-0.901258
block_1,9745,9,13996,1,-14.7306,-5.62975,11.1848,-7.87824,-0.901263
block_1,9746,9,13997,1,-24.3481,-17.2672,11.0526,-24.0117,-0.981585
block_1,9747,9,13998,1,-24.2865,-17.1474,11.0978,-23.9472,-0.981591
block_1,9748,9,13999,1,-14.7505,-5.58996,11.2304,-7.85682,-0.901268
block_1,9749,9,14000,1,-14.7703,-5.54999,11.276,-7.83531,-0.901272
block_1,9750,9,14001,1,-24.2246,-17.0272,11.1431,-23.8824,-0.981596
block_1,9751,9,14002,1,-24.1626,-16.9064,11.1883,-23.8174,-0.981601
block_1,9752,9,14003,1,-40.1249,-28.8661,10.8789,-40.1249,-1.06097
block_1,9753,9,14004,1,-40.0172,-28.6662,10.9234,-40.0172,-1.06098
block_1,9754,9,14005,1,-56.2398,-40.4668,10.6181,-56.2398,-1.13878
block_1,9755,9,14006,1,-56.089,-40.1867,10.6616,-56.089,-1.13879
block_1,9756,9,14007,1,-39.9091,-28.4654,10.9679,-39.9091,-1.06098
block_1,9757,9,14008,1,-39.8006,-28.2638,11.0125,-39.8006,-1.06099
block_1,9758,9,14009,1,-55.9375,-39.9054,10.705,-55.9375,-1.13879
block_1,9759,9,14010,1,-55.7855,-39.6231,10.7485,-55.7855,-1.1388
block_1,9760,9,14011,1,-73.1253,-53.4962,10.1022,-73.1253,-1.21437
block_1,9761,9,14012,1,-72.9345,-53.1418,10.1442,-72.9345,-1.21437
block_1,9762,9,14013,1,-89.4168,-65.4199,9.67433,-89.4168,-1.28714
block_1,9763,9,14014,1,-89.1835,-64.9867,9.71456,-89.1835,-1.28715
block_1,9764,9,14015,1,-72.7428,-52.786,10.1862,-72.7428,-1.21438
block_1,9765,9,14016,1,-72.5504,-52.4287,10.2282,-72.5504,-1.21438
block_1,9766,9,14017,1,-88.9493,-64.5517,9.7548,-88.9493,-1.28715
block_1,9767,9,14018,1,-88.714,-64.1149,9.79504,-88.714,-1.28716
block_1,9768,9,14019,1,-105.712,-77.3474,9.1608,-105.712,-1.35645
block_1,9769,9,14020,1,-105.436,-76.8354,9.1989,-105.436,-1.35646
block_1,9770,9,14021,1,-122.012,-89.2796,8.56161,-122.012,-1.42167
block_1,9771,9,14022,1,-121.694,-88.6887,8.59722,-121.694,-1.42167
block_1,9772,9,14023,1,-105.16,-76.3212,9.237,-105.16,-1.35646
block_1,9773,9,14024,1,-104.882,-75.8049,9.2751,-104.882,-1.35647
block_1,9774,9,14025,1,-121.374,-88.0954,8.63282,-121.374,-1.42168
block_1,9775,9,14026,1,-121.054,-87.4996,8.66843,-121.054,-1.42169
block_1,9776,9,14027,1,-72.3572,-52.0699,10.2703,-72.3572,-1.21439
block_1,9777,9,14028,1,-72.1632,-51.7097,10.3123,-72.1632,-1.2144
block_1,9778,9,14029,1,-88.4778,-63.6763,9.83527,-88.4778,-1.28717
block_1,9779,9,14030,1,-88.2407,-63.2359,9.87551,-88.2407,-1.28717
block_1,9780,9,14031,1,-71.9685,-51.348,10.3543,-71.9685,-1.2144
block_1,9781,9,14032,1,-71.7729,-50.9848,10.3963,-71.7729,-1.21441
block_1,9782,9,14033,1,-88.0026,-62.7937,9.91575,-88.0026,-1.28718
block_1,9783,9,14034,1,-87.7635,-62.3497,9.95599,-87.7635,-1.28719
block_1,9784,9,14035,1,-104.602,-75.2865,9.3132,-104.602,-1.35648
block_1,9785,9,14036,1,-104.322,-74.7659,9.3513,-104.322,-1.35648
block_1,9786,9,14037,1,-120.731,-86.9013,8.70404,-120.731,-1.42169
block_1,9787,9,14038,1,-120.408,-86.3006,8.73965,-120.408,-1.4217
block_1,9788,9,14039,1,-104.041,-74.2433,9.3894,-104.041,-1.35649
block_1,9789,9,14040,1,-103.758,-73.7184,9.42751,-103.758,-1.3565
block_1,9790,9,14041,1,-120.083,-85.6975,8.77525,-120.083,-1.42171
block_1,9791,9,14042,1,-119.757,-85.0918,8.81086,-119.757,-1.42172
block_1,9792,9,14043,1,-14.7902,-5.50987,11.3215,-7.81371,-0.901277
block_1,9793,9,14044,1,-14.81,-5.46958,11.3671,-7.79203,-0.901282
block_1,9794,9,14045,1,-24.1003,-16.7851,11.2335,-23.7521,-0.981606
block_1,9795,9,14046,1,-24.0378,-16.6634,11.2787,-23.6866,-0.981612
block_1,9796,9,14047,1,-14.8298,-5.42913,11.4127,-7.77026,-0.901287
block_1,9797,9,14048,1,-14.8496,-5.38852,11.4583,-7.7484,-0.901292
block_1,9798,9,14049,1,-23.9751,-16.5411,11.324,-23.6207,-0.981617
block_1,9799,9,14050,1,-23.9121,-16.4184,11.3692,-23.5547,-0.981622
block_1,9800,9,14051,1,-39.6916,-28.0614,11.057,-39.6916,-1.06099
block_1,9801,9,14052,1,-39.5822,-27.8582,11.1015,-39.5822,-1.061
block_1,9802,9,14053,1,-55.6328,-39.3395,10.7919,-55.6328,-1.13881
block_1,9803,9,14054,1,-55.4795,-39.0549,10.8353,-55.4795,-1.13881
block_1,9804,9,14055,1,-39.4723,-27.6542,11.146,-39.4723,-1.061
block_1,9805,9,14056,1,-39.362,-27.4494,11.1905,-39.362,-1.06101
block_1,9806,9,14057,1,-55.3256,-38.769,10.8788,-55.3256,-1.13882
block_1,9807,9,14058,1,-55.1711,-38.4821,10.9222,-55.1711,-1.13882
block_1,9808,9,14059,1,-14.8694,-5.34775,11.5039,-7.72646,-0.901297
block_1,9809,9,14060,1,-14.8891,-5.30681,11.5494,-7.70443,-0.901302
block_1,9810,9,14061,1,-23.849,-16.2952,11.4144,-23.4883,-0.981628
block_1,9811,9,14062,1,-23.7856,-16.1715,11.4596,-23.4217,-0.981633
block_1,9812,9,14063,1,-14.9089,-5.26571,11.595,-7.68231,-0.901307
block_1,9813,9,14064,1,-14.9286,-5.22445,11.6406,-7.6601,-0.901312
block_1,9814,9,14065,1,-23.722,-16.0473,11.5049,-23.3549,-0.981638
block_1,9815,9,14066,1,-23.6582,-15.9226,11.5501,-23.2877,-0.981644
block_1,9816,9,14067,1,-39.2513,-27.2437,11.235,-39.2513,-1.06102
block_1,9817,9,14068,1,-39.1401,-27.0372,11.2795,-39.1401,-1.06102
block_1,9818,9,14069,1,-55.016,-38.194,10.9657,-55.016,-1.13883
block_1,9819,9,14070,1,-54.8602,-37.9047,11.0091,-54.8602,-1.13884
block_1,9820,9,14071,1,-39.0285,-26.8299,11.324,-39.0285,-1.06103
block_1,9821,9,14072,1,-38.9164,-26.6218,11.3685,-38.9164,-1.06103
block_1,9822,9,14073,1,-54.7038,-37.6143,11.0526,-54.7038,-1.13884
block_1,9823,9,14074,1,-54.5468,-37.3228,11.096,-54.5468,-1.13885
block_1,9824,9,14075,1,-71.5765,-50.6201,10.4383,-71.5765,-1.21442
block_1,9825,9,14076,1,-71.3794,-50.254,10.4803,-71.3794,-1.21442
block_1,9826,9,14077,1,-87.5234,-61.9039,9.99622,-87.5234,-1.28719
block_1,9827,9,14078,1,-87.2824,-61.4563,10.0365,-87.2824,-1.2872
block_1,9828,9,14079,1,-71.1814,-49.8864,10.5224,-71.1814,-1.21443
block_1,9829,9,14080,1,-70.9827,-49.5173,10.5644,-70.9827,-1.21444
block_1,9830,9,14081,1,-87.0404,-61.0069,10.0767,-87.0404,-1.28721
block_1,9831,9,14082,1,-86.7974,-60.5557,10.1169,-86.7974,-1.28721
block_1,9832,9,14083,1,-103.474,-73.1915,9.46561,-103.474,-1.3565
block_1,9833,9,14084,1,-103.189,-72.6624,9.50371,-103.189,-1.35651
block_1,9834,9,14085,1,-119.43,-84.4838,8.84647,-119.43,-1.42172
block_1,9835,9,14086,1,-119.101,-83.8732,8.88208,-119.101,-1.42173
block_1,9836,9,14087,1,-102.903,-72.1313,9.54181,-102.903,-1.35652
block_1,9837,9,14088,1,-102.616,-71.5979,9.57991,-102.616,-1.35653
block_1,9838,9,14089,1,-118.771,-83.2603,8.91769,-118.771,-1.42174
block_1,9839,9,14090,1,-118.439,-82.6448,8.9533,-118.439,-1.42174
block_1,9840,9,14091,1,-70.7831,-49.1467,10.6064,-70.7831,-1.21444
block_1,9841,9,14092,1,-70.5828,-48.7747,10.6484,-70.5828,-1.21445
block_1,9842,9,14093,1,-86.5535,-60.1027,10.1572,-86.5535,-1.28722
block_1,9843,9,14094,1,-86.3086,-59.6479,10.1974,-86.3086,-1.28723
block_1,9844,9,14095,1,-70.3817,-48.4012,10.6904,-70.3817,-1.21445
block_1,9845,9,14096,1,-70.1798,-48.0262,10.7325,-70.1798,-1.21446
block_1,9846,9,14097,1,-86.0627,-59.1913,10.2377,-86.0627,-1.28723
block_1,9847,9,14098,1,-85.8159,-58.7329,10.2779,-85.8159,-1.28724
block_1,9848,9,14099,1,-102.328,-71.0625,9.61801,-102.328,-1.35653
block_1,9849,9,14100,1,-102.038,-70.5249,9.65612,-102.038,-1.35654
block_1,9850,9,14101,1,-118.107,-82.0269,8.98891,-118.107,-1.42175
block_1,9851,9,14102,1,-117.773,-81.4066,9.02451,-117.773,-1.42176
block_1,9852,9,14103,1,-101.748,-69.9852,9.69422,-101.748,-1.35655
block_1,9853,9,14104,1,-101.456,-69.4434,9.73232,-101.456,-1.35655
block_1,9854,9,14105,1,-117.437,-80.7838,9.06012,-117.437,-1.42177
block_1,9855,9,14106,1,-117.1,-80.1586,9.09573,-117.1,-1.42177
block_1,9856,9,14107,1,-138.318,-101.217,7.87675,-138.318,-1.48216
block_1,9857,9,14108,1,-137.957,-100.547,7.90951,-137.957,-1.48217
block_1,9858,9,14109,1,-154.629,-113.161,7.10622,-154.629,-1.5373
block_1,9859,9,14110,1,-154.226,-112.412,7.13578,-154.226,-1.5373
block_1,9860,9,14111,1,-137.595,-99.8749,7.94227,-137.595,-1.48217
block_1,9861,9,14112,1,-137.231,-99.1996,7.97502,-137.231,-1.48218
block_1,9862,9,14113,1,-153.821,-111.66,7.16533,-153.821,-1.53731
block_1,9863,9,14114,1,-153.414,-110.906,7.19488,-153.414,-1.53732
block_1,9864,9,14115,1,-170.947,-125.111,6.25003,-170.947,-1.58645
block_1,9865,9,14116,1,-170.501,-124.283,6.27602,-170.501,-1.58646
block_1,9866,9,14117,1,-187.272,-137.069,5.30816,-187.272,-1.62899
block_1,9867,9,14118,1,-186.784,-136.162,5.33024,-186.784,-1.629
block_1,9868,9,14119,1,-170.054,-123.453,6.30201,-170.054,-1.58647
block_1,9869,9,14120,1,-169.605,-122.618,6.328,-169.605,-1.58647
block_1,9870,9,14121,1,-186.294,-135.252,5.35231,-186.294,-1.629
block_1,9871,9,14122,1,-185.802,-134.338,5.37439,-185.802,-1.62901
block_1,9872,9,14123,1,-136.866,-98.5215,8.00778,-136.866,-1.48219
block_1,9873,9,14124,1,-136.499,-97.8406,8.04054,-136.499,-1.48219
block_1,9874,9,14125,1,-153.006,-110.148,7.22443,-153.006,-1.53733
block_1,9875,9,14126,1,-152.597,-109.387,7.25399,-152.597,-1.53733
block_1,9876,9,14127,1,-136.131,-97.157,8.0733,-136.131,-1.4822
block_1,9877,9,14128,1,-135.761,-96.4706,8.10606,-135.761,-1.48221
block_1,9878,9,14129,1,-152.185,-108.623,7.28354,-152.185,-1.53734
block_1,9879,9,14130,1,-151.772,-107.855,7.31309,-151.772,-1.53735
block_1,9880,9,14131,1,-169.154,-121.781,6.35399,-169.154,-1.58648
block_1,9881,9,14132,1,-168.701,-120.939,6.37998,-168.701,-1.58649
block_1,9882,9,14133,1,-185.308,-133.421,5.39646,-185.308,-1.62902
block_1,9883,9,14134,1,-184.812,-132.5,5.41853,-184.812,-1.62903
block_1,9884,9,14135,1,-168.246,-120.095,6.40598,-168.246,-1.58649
block_1,9885,9,14136,1,-167.789,-119.247,6.43197,-167.789,-1.5865
block_1,9886,9,14137,1,-184.314,-131.575,5.44061,-184.314,-1.62903
block_1,9887,9,14138,1,-183.814,-130.646,5.46268,-183.814,-1.62904
block_1,9888,9,14139,1,-203.606,-149.034,4.28064,-203.606,-1.66428
block_1,9889,9,14140,1,-203.076,-148.049,4.29843,-203.076,-1.66429
block_1,9890,9,14141,1,-219.949,-161.009,3.16744,-219.949,-1.6917
block_1,9891,9,14142,1,-219.376,-159.945,3.18061,-219.376,-1.69171
block_1,9892,9,14143,1,-202.543,-147.06,4.31623,-202.543,-1.6643
block_1,9893,9,14144,1,-202.008,-146.067,4.33403,-202.008,-1.6643
block_1,9894,9,14145,1,-218.8,-158.877,3.19378,-218.8,-1.69171
block_1,9895,9,14146,1,-218.223,-157.804,3.20695,-218.223,-1.69172
block_1,9896,9,14147,1,-236.301,-172.993,1.96857,-236.301,-1.71061
block_1,9897,9,14148,1,-235.685,-171.851,1.97676,-235.685,-1.71062
block_1,9898,9,14149,1,-252.663,-184.988,0.684044,-252.663,-1.72039
block_1,9899,9,14150,1,-252.005,-183.766,0.686884,-252.005,-1.72039
block_1,9900,9,14151,1,-235.067,-170.703,1.98494,-235.067,-1.71062
block_1,9901,9,14152,1,-234.447,-169.551,1.99312,-234.447,-1.71063
block_1,9902,9,14153,1,-251.345,-182.54,0.689723,-251.345,-1.7204
block_1,9903,9,14154,1,-250.681,-181.308,0.692562,-250.681,-1.72041
block_1,9904,9,14155,1,-201.471,-145.069,4.35183,-201.471,-1.66431
block_1,9905,9,14156,1,-200.932,-144.068,4.36963,-200.932,-1.66432
block_1,9906,9,14157,1,-217.643,-156.727,3.22011,-217.643,-1.69173
block_1,9907,9,14158,1,-217.06,-155.645,3.23328,-217.06,-1.69173
block_1,9908,9,14159,1,-200.39,-143.062,4.38743,-200.39,-1.66432
block_1,9909,9,14160,1,-199.846,-142.053,4.40523,-199.846,-1.66433
block_1,9910,9,14161,1,-216.475,-154.559,3.24645,-216.475,-1.69174
block_1,9911,9,14162,1,-215.888,-153.469,3.25962,-215.888,-1.69175
block_1,9912,9,14163,1,-233.824,-168.394,2.0013,-233.824,-1.71064
block_1,9913,9,14164,1,-233.198,-167.232,2.00948,-233.198,-1.71065
block_1,9914,9,14165,1,-250.015,-180.071,0.695401,-250.015,-1.72041
block_1,9915,9,14166,1,-249.346,-178.829,0.698239,-249.346,-1.72042
block_1,9916,9,14167,1,-232.57,-166.065,2.01767,-232.57,-1.71065
block_1,9917,9,14168,1,-231.939,-164.894,2.02585,-231.939,-1.71066
block_1,9918,9,14169,1,-248.675,-177.582,0.701077,-248.675,-1.72043
block_1,9919,9,14170,1,-248.001,-176.33,0.703915,-248.001,-1.72043
block_1,9920,9,14171,1,-135.39,-95.7813,8.13882,-135.39,-1.48222
block_1,9921,9,14172,1,-135.018,-95.0894,8.17158,-135.018,-1.48222
block_1,9922,9,14173,1,-151.357,-107.085,7.34265,-151.357,-1.53736
block_1,9923,9,14174,1,-150.941,-106.312,7.3722,-150.941,-1.53736
block_1,9924,9,14175,1,-134.644,-94.3946,8.20434,-134.644,-1.48223
block_1,9925,9,14176,1,-134.268,-93.697,8.2371,-134.268,-1.48224
block_1,9926,9,14177,1,-150.522,-105.535,7.40175,-150.522,-1.53737
block_1,9927,9,14178,1,-150.103,-104.755,7.43131,-150.103,-1.53738
block_1,9928,9,14179,1,-167.331,-118.395,6.45796,-167.331,-1.58651
block_1,9929,9,14180,1,-166.87,-117.54,6.48395,-166.87,-1.58652
block_1,9930,9,14181,1,-183.311,-129.713,5.48475,-183.311,-1.62905
block_1,9931,9,14182,1,-182.807,-128.777,5.50682,-182.807,-1.62905
block_1,9932,9,14183,1,-166.408,-116.682,6.50994,-166.408,-1.58652
block_1,9933,9,14184,1,-165.944,-115.82,6.53593,-165.944,-1.58653
block_1,9934,9,14185,1,-182.301,-127.837,5.5289,-182.301,-1.62906
block_1,9935,9,14186,1,-181.793,-126.893,5.55097,-181.793,-1.62907
block_1,9936,9,14187,1,-133.891,-92.9967,8.26985,-133.891,-1.48225
block_1,9937,9,14188,1,-133.512,-92.2936,8.30261,-133.512,-1.48225
block_1,9938,9,14189,1,-149.681,-103.973,7.46086,-149.681,-1.53738
block_1,9939,9,14190,1,-149.258,-103.187,7.49041,-149.258,-1.53739
block_1,9940,9,14191,1,-133.132,-91.5877,8.33537,-133.132,-1.48226
block_1,9941,9,14192,1,-132.75,-90.879,8.36813,-132.75,-1.48227
block_1,9942,9,14193,1,-148.833,-102.398,7.51997,-148.833,-1.5374
block_1,9943,9,14194,1,-148.406,-101.606,7.54952,-148.406,-1.53741
block_1,9944,9,14195,1,-165.478,-114.955,6.56192,-165.478,-1.58654
block_1,9945,9,14196,1,-165.01,-114.086,6.58791,-165.01,-1.58655
block_1,9946,9,14197,1,-181.282,-125.945,5.57304,-181.282,-1.62908
block_1,9947,9,14198,1,-180.77,-124.994,5.59512,-180.77,-1.62908
block_1,9948,9,14199,1,-164.541,-113.214,6.61391,-164.541,-1.58655
block_1,9949,9,14200,1,-164.069,-112.339,6.6399,-164.069,-1.58656
block_1,9950,9,14201,1,-180.256,-124.038,5.61719,-180.256,-1.62909
block_1,9951,9,14202,1,-179.739,-123.079,5.63926,-179.739,-1.6291
block_1,9952,9,14203,1,-199.3,-141.039,4.42303,-199.3,-1.66434
block_1,9953,9,14204,1,-198.752,-140.021,4.44083,-198.752,-1.66435
block_1,9954,9,14205,1,-215.298,-152.374,3.27279,-215.298,-1.69176
block_1,9955,9,14206,1,-214.706,-151.275,3.28595,-214.706,-1.69176
block_1,9956,9,14207,1,-198.202,-138.999,4.45862,-198.202,-1.66435
block_1,9957,9,14208,1,-197.65,-137.973,4.47642,-197.65,-1.66436
block_1,9958,9,14209,1,-214.112,-150.171,3.29912,-214.112,-1.69177
block_1,9959,9,14210,1,-213.515,-149.063,3.31229,-213.515,-1.69178
block_1,9960,9,14211,1,-231.306,-163.718,2.03403,-231.306,-1.71067
block_1,9961,9,14212,1,-230.67,-162.537,2.04221,-230.67,-1.71067
block_1,9962,9,14213,1,-247.324,-175.073,0.706752,-247.324,-1.72044
block_1,9963,9,14214,1,-246.644,-173.811,0.709588,-246.644,-1.72045
block_1,9964,9,14215,1,-230.032,-161.352,2.05039,-230.032,-1.71068
block_1,9965,9,14216,1,-229.391,-160.162,2.05857,-229.391,-1.71069
block_1,9966,9,14217,1,-245.961,-172.543,0.712425,-245.961,-1.72045
block_1,9967,9,14218,1,-245.276,-171.271,0.715261,-245.276,-1.72046
block_1,9968,9,14219,1,-197.095,-136.943,4.49422,-197.095,-1.66437
block_1,9969,9,14220,1,-196.538,-135.909,4.51202,-196.538,-1.66438
block_1,9970,9,14221,1,-212.916,-147.95,3.32545,-212.916,-1.69178
block_1,9971,9,14222,1,-212.315,-146.833,3.33862,-212.315,-1.69179
block_1,9972,9,14223,1,-195.979,-134.871,4.52982,-195.979,-1.66438
block_1,9973,9,14224,1,-195.417,-133.828,4.54761,-195.417,-1.66439
block_1,9974,9,14225,1,-211.711,-145.712,3.35179,-211.711,-1.6918
block_1,9975,9,14226,1,-211.105,-144.586,3.36495,-211.105,-1.69181
block_1,9976,9,14227,1,-228.747,-158.967,2.06675,-228.747,-1.71069
block_1,9977,9,14228,1,-228.101,-157.767,2.07493,-228.101,-1.7107
block_1,9978,9,14229,1,-244.588,-169.994,0.718096,-244.588,-1.72047
block_1,9979,9,14230,1,-243.898,-168.711,0.720931,-243.898,-1.72047
block_1,9980,9,14231,1,-227.452,-156.562,2.0831,-227.452,-1.71071
block_1,9981,9,14232,1,-226.801,-155.353,2.09128,-226.801,-1.71071
block_1,9982,9,14233,1,-243.204,-167.423,0.723766,-243.204,-1.72048
block_1,9983,9,14234,1,-242.508,-166.131,0.726601,-242.508,-1.72049
block_1,9984,9,14235,1,-14.9483,-5.18302,11.6862,-7.6378,-0.901317
block_1,9985,9,14236,1,-14.968,-5.14143,11.7317,-7.61542,-0.901322
block_1,9986,9,14237,1,-23.5942,-15.7974,11.5953,-23.2203,-0.981649
block_1,9987,9,14238,1,-23.5362,-15.6717,11.6405,-23.1527,-0.981655
block_1,9988,9,14239,1,-14.9877,-5.09968,11.7773,-7.59295,-0.901327
block_1,9989,9,14240,1,-15.0073,-5.05776,11.8229,-7.5704,-0.901332
block_1,9990,9,14241,1,-23.4783,-15.5456,11.6858,-23.0847,-0.98166
block_1,9991,9,14242,1,-23.4203,-15.4189,11.731,-23.0165,-0.981665
block_1,9992,9,14243,1,-38.8039,-26.4129,11.4131,-38.8039,-1.06104
block_1,9993,9,14244,1,-38.691,-26.2031,11.4576,-38.691,-1.06104
block_1,9994,9,14245,1,-54.3892,-37.0301,11.1395,-54.3892,-1.13885
block_1,9995,9,14246,1,-54.231,-36.7362,11.1829,-54.231,-1.13886
block_1,9996,9,14247,1,-38.5776,-25.9925,11.5021,-38.5776,-1.06105
block_1,9997,9,14248,1,-38.4638,-25.7812,11.5466,-38.4638,-1.06106
block_1,9998,9,14249,1,-54.0722,-36.4413,11.2263,-54.0722,-1.13887
block_1,9999,9,14250,1,-53.9127,-36.1451,11.2698,-53.9127,-1.13887
block_1,10000,9,14251,1,-15.0269,-5.01569,11.8685,-7.54775,-0.901337
block_1,10001,9,14252,1,-15.0465,-4.97345,11.9141,-7.52502,-0.901342
block_1,10002,9,14253,1,-23.3621,-15.2918,11.7762,-22.9481,-0.981671
block_1,10003,9,14254,1,-23.3039,-15.1642,11.8214,-22.8794,-0.981676
block_1,10004,9,14255,1,-15.0661,-4.93104,11.9597,-7.5022,-0.901347
block_1,10005,9,14256,1,-15.0857,-4.88848,12.0052,-7.47929,-0.901353
block_1,10006,9,14257,1,-23.2456,-15.036,11.8667,-22.8104,-0.981682
block_1,10007,9,14258,1,-23.1871,-14.9074,11.9119,-22.7412,-0.981688
block_1,10008,9,14259,1,-38.3495,-25.5689,11.5911,-38.3495,-1.06106
block_1,10009,9,14260,1,-38.2348,-25.3559,11.6356,-38.2348,-1.06107
block_1,10010,9,14261,1,-53.7527,-35.8479,11.3132,-53.7527,-1.13888
block_1,10011,9,14262,1,-53.592,-35.5495,11.3567,-53.592,-1.13889
block_1,10012,9,14263,1,-38.1197,-25.1421,11.6801,-38.1197,-1.06107
block_1,10013,9,14264,1,-38.0041,-24.9274,11.7247,-38.0041,-1.06108
block_1,10014,9,14265,1,-53.4307,-35.2499,11.4001,-53.4307,-1.13889
block_1,10015,9,14266,1,-53.2688,-34.9492,11.4436,-53.2688,-1.1389
block_1,10016,9,14267,1,-69.9771,-47.6498,10.7745,-69.9771,-1.21447
block_1,10017,9,14268,1,-69.7736,-47.2719,10.8165,-69.7736,-1.21447
block_1,10018,9,14269,1,-85.5681,-58.2727,10.3181,-85.5681,-1.28725
block_1,10019,9,14270,1,-85.3193,-57.8107,10.3584,-85.3193,-1.28725
block_1,10020,9,14271,1,-69.5693,-46.8925,10.8585,-69.5693,-1.21448
block_1,10021,9,14272,1,-69.3642,-46.5116,10.9005,-69.3642,-1.21449
block_1,10022,9,14273,1,-85.0695,-57.3469,10.3986,-85.0695,-1.28726
block_1,10023,9,14274,1,-84.8188,-56.8813,10.4389,-84.8188,-1.28727
block_1,10024,9,14275,1,-101.163,-68.8995,9.77042,-101.163,-1.35656
block_1,10025,9,14276,1,-100.869,-68.3534,9.80853,-100.869,-1.35657
block_1,10026,9,14277,1,-116.762,-79.5309,9.13134,-116.762,-1.42178
block_1,10027,9,14278,1,-116.423,-78.9007,9.16695,-116.423,-1.42179
block_1,10028,9,14279,1,-100.574,-67.8052,9.84663,-100.574,-1.35657
block_1,10029,9,14280,1,-100.277,-67.2549,9.88473,-100.277,-1.35658
block_1,10030,9,14281,1,-116.082,-78.2681,9.20256,-116.082,-1.42179
block_1,10031,9,14282,1,-115.741,-77.633,9.23817,-115.741,-1.4218
block_1,10032,9,14283,1,-69.1583,-46.1293,10.9426,-69.1583,-1.21449
block_1,10033,9,14284,1,-68.9517,-45.7455,10.9846,-68.9517,-1.2145
block_1,10034,9,14285,1,-84.5672,-56.4139,10.4791,-84.5672,-1.28727
block_1,10035,9,14286,1,-84.3145,-55.9447,10.5193,-84.3145,-1.28728
block_1,10036,9,14287,1,-68.7442,-45.3602,11.0266,-68.7442,-1.21451
block_1,10037,9,14288,1,-68.5359,-44.9735,11.0686,-68.5359,-1.21451
block_1,10038,9,14289,1,-84.0609,-55.4737,10.5596,-84.0609,-1.28729
block_1,10039,9,14290,1,-83.8063,-55.0009,10.5998,-83.8063,-1.28729
block_1,10040,9,14291,1,-99.9799,-66.7024,9.92284,-99.9799,-1.35659
block_1,10041,9,14292,1,-99.6813,-66.1478,9.96094,-99.6813,-1.3566
block_1,10042,9,14293,1,-115.397,-76.9955,9.27378,-115.397,-1.42181
block_1,10043,9,14294,1,-115.053,-76.3555,9.30939,-115.053,-1.42182
block_1,10044,9,14295,1,-99.3815,-65.5911,9.99905,-99.3815,-1.3566
block_1,10045,9,14296,1,-99.0806,-65.0323,10.0372,-99.0806,-1.35661
block_1,10046,9,14297,1,-114.707,-75.7131,9.345,-114.707,-1.42182
block_1,10047,9,14298,1,-114.359,-75.0682,9.38062,-114.359,-1.42183
block_1,10048,9,14299,1,-15.1053,-4.84575,12.0508,-7.4563,-0.901358
block_1,10049,9,14300,1,-15.1248,-4.80286,12.0964,-7.43321,-0.901363
block_1,10050,9,14301,1,-23.1286,-14.7783,11.9571,-22.6716,-0.981693
block_1,10051,9,14302,1,-23.0699,-14.6487,12.0023,-22.6019,-0.981699
block_1,10052,9,14303,1,-15.1443,-4.7598,12.142,-7.41004,-0.901369
block_1,10053,9,14304,1,-15.1638,-4.71658,12.1876,-7.38679,-0.901374
block_1,10054,9,14305,1,-23.0111,-14.5186,12.0476,-22.5318,-0.981705
block_1,10055,9,14306,1,-22.9522,-14.3881,12.0928,-22.4615,-0.981711
block_1,10056,9,14307,1,-37.8881,-24.712,11.7692,-37.8881,-1.06109
block_1,10057,9,14308,1,-37.7716,-24.4957,11.8137,-37.7716,-1.06109
block_1,10058,9,14309,1,-53.1062,-34.6474,11.487,-53.1062,-1.1389
block_1,10059,9,14310,1,-52.9431,-34.3444,11.5305,-52.9431,-1.13891
block_1,10060,9,14311,1,-37.6547,-24.2786,11.8582,-37.6547,-1.0611
block_1,10061,9,14312,1,-37.5374,-24.0606,11.9027,-37.5374,-1.0611
block_1,10062,9,14313,1,-52.7793,-34.0402,11.5739,-52.7793,-1.13892
block_1,10063,9,14314,1,-52.615,-33.7349,11.6174,-52.615,-1.13892
block_1,10064,9,14315,1,-15.1833,-4.6732,12.2332,-7.36344,-0.90138
block_1,10065,9,14316,1,-15.2027,-4.62966,12.2787,-7.34001,-0.901386
block_1,10066,9,14317,1,-22.8932,-14.257,12.138,-22.391,-0.981717
block_1,10067,9,14318,1,-22.8341,-14.1255,12.1833,-22.3202,-0.981724
block_1,10068,9,14319,1,-15.2222,-4.58595,12.3243,-7.31649,-0.901392
block_1,10069,9,14320,1,-15.2416,-4.54208,12.3699,-7.29288,-0.901399
block_1,10070,9,14321,1,-22.7749,-13.9934,12.2285,-22.2491,-0.98173
block_1,10071,9,14322,1,-22.7156,-13.8609,12.2737,-22.1777,-0.981737
block_1,10072,9,14323,1,-37.4196,-23.8419,11.9472,-37.4196,-1.06111
block_1,10073,9,14324,1,-37.3014,-23.6223,11.9918,-37.3014,-1.06112
block_1,10074,9,14325,1,-52.45,-33.4285,11.6608,-52.45,-1.13893
block_1,10075,9,14326,1,-52.2843,-33.1209,11.7043,-52.2843,-1.13894
block_1,10076,9,14327,1,-37.1827,-23.4019,12.0363,-37.1827,-1.06112
block_1,10077,9,14328,1,-37.0636,-23.1807,12.0808,-37.0636,-1.06113
block_1,10078,9,14329,1,-52.1181,-32.8122,11.7477,-52.1181,-1.13895
block_1,10079,9,14330,1,-51.9513,-32.5024,11.7912,-51.9513,-1.13895
block_1,10080,9,14331,1,-68.3269,-44.5852,11.1107,-68.3269,-1.21452
block_1,10081,9,14332,1,-68.1171,-44.1956,11.1527,-68.1171,-1.21453
block_1,10082,9,14333,1,-83.5508,-54.5263,10.6401,-83.5508,-1.2873
block_1,10083,9,14334,1,-83.2942,-54.0499,10.6803,-83.2942,-1.28731
block_1,10084,9,14335,1,-67.9064,-43.8044,11.1947,-67.9064,-1.21453
block_1,10085,9,14336,1,-67.695,-43.4117,11.2367,-67.695,-1.21454
block_1,10086,9,14337,1,-83.0367,-53.5717,10.7206,-83.0367,-1.28732
block_1,10087,9,14338,1,-82.7783,-53.0917,10.7608,-82.7783,-1.28732
block_1,10088,9,14339,1,-98.7785,-64.4713,10.0753,-98.7785,-1.35662
block_1,10089,9,14340,1,-98.4753,-63.9082,10.1134,-98.4753,-1.35662
block_1,10090,9,14341,1,-114.011,-74.4209,9.41623,-114.011,-1.42184
block_1,10091,9,14342,1,-113.661,-73.7711,9.45184,-113.661,-1.42185
block_1,10092,9,14343,1,-98.1709,-63.343,10.1515,-98.1709,-1.35663
block_1,10093,9,14344,1,-97.8654,-62.7756,10.1896,-97.8654,-1.35664
block_1,10094,9,14345,1,-113.31,-73.1188,9.48745,-113.31,-1.42185
block_1,10095,9,14346,1,-112.957,-72.4641,9.52306,-112.957,-1.42186
block_1,10096,9,14347,1,-67.4828,-43.0176,11.2788,-67.4828,-1.21455
block_1,10097,9,14348,1,-67.2698,-42.6221,11.3208,-67.2698,-1.21456
block_1,10098,9,14349,1,-82.5188,-52.6099,10.801,-82.5188,-1.28733
block_1,10099,9,14350,1,-82.2585,-52.1264,10.8413,-82.2585,-1.28734
block_1,10100,9,14351,1,-67.056,-42.225,11.3628,-67.056,-1.21456
block_1,10101,9,14352,1,-66.8414,-41.8265,11.4048,-66.8414,-1.21457
block_1,10102,9,14353,1,-81.9971,-51.641,10.8815,-81.9971,-1.28735
block_1,10103,9,14354,1,-81.7348,-51.1538,10.9218,-81.7348,-1.28735
block_1,10104,9,14355,1,-97.5588,-62.2062,10.2277,-97.5588,-1.35665
block_1,10105,9,14356,1,-97.251,-61.6346,10.2658,-97.251,-1.35666
block_1,10106,9,14357,1,-112.603,-71.807,9.55867,-112.603,-1.42187
block_1,10107,9,14358,1,-112.248,-71.1474,9.59428,-112.248,-1.42188
block_1,10108,9,14359,1,-96.9421,-61.0608,10.3039,-96.9421,-1.35666
block_1,10109,9,14360,1,-96.632,-60.485,10.342,-96.632,-1.35667
block_1,10110,9,14361,1,-111.892,-70.4853,9.6299,-111.892,-1.42189
block_1,10111,9,14362,1,-111.534,-69.8208,9.66551,-111.534,-1.42189
block_1,10112,9,14363,1,-132.367,-90.1676,8.40089,-132.367,-1.48227
block_1,10113,9,14364,1,-131.983,-89.4533,8.43365,-131.983,-1.48228
block_1,10114,9,14365,1,-147.978,-100.81,7.57908,-147.978,-1.53741
block_1,10115,9,14366,1,-147.548,-100.012,7.60863,-147.548,-1.53742
block_1,10116,9,14367,1,-131.597,-88.7363,8.46641,-131.597,-1.48229
block_1,10117,9,14368,1,-131.209,-88.0165,8.49917,-131.209,-1.4823
block_1,10118,9,14369,1,-147.117,-99.2106,7.63818,-147.117,-1.53743
block_1,10119,9,14370,1,-146.683,-98.406,7.66774,-146.683,-1.53744
block_1,10120,9,14371,1,-163.596,-111.46,6.66589,-163.596,-1.58657
block_1,10121,9,14372,1,-163.121,-110.577,6.69188,-163.121,-1.58658
block_1,10122,9,14373,1,-179.221,-122.117,5.66133,-179.221,-1.62911
block_1,10123,9,14374,1,-178.7,-121.15,5.68341,-178.7,-1.62911
block_1,10124,9,14375,1,-162.644,-109.692,6.71787,-162.644,-1.58658
block_1,10125,9,14376,1,-162.165,-108.802,6.74386,-162.165,-1.58659
block_1,10126,9,14377,1,-178.178,-120.18,5.70548,-178.178,-1.62912
block_1,10127,9,14378,1,-177.653,-119.206,5.72755,-177.653,-1.62913
block_1,10128,9,14379,1,-130.82,-87.2939,8.53193,-130.82,-1.4823
block_1,10129,9,14380,1,-130.429,-86.5686,8.56469,-130.429,-1.48231
block_1,10130,9,14381,1,-146.249,-97.5984,7.69729,-146.249,-1.53744
block_1,10131,9,14382,1,-145.812,-96.7876,7.72685,-145.812,-1.53745
block_1,10132,9,14383,1,-130.037,-85.8404,8.59746,-130.037,-1.48232
block_1,10133,9,14384,1,-129.644,-85.1095,8.63022,-129.644,-1.48233
block_1,10134,9,14385,1,-145.374,-95.9738,7.7564,-145.374,-1.53746
block_1,10135,9,14386,1,-144.934,-95.1568,7.78595,-144.934,-1.53747
block_1,10136,9,14387,1,-161.684,-107.91,6.76985,-161.684,-1.5866
block_1,10137,9,14388,1,-161.201,-107.013,6.79585,-161.201,-1.58661
block_1,10138,9,14389,1,-177.127,-118.228,5.74962,-177.127,-1.62914
block_1,10139,9,14390,1,-176.598,-117.247,5.7717,-176.598,-1.62914
block_1,10140,9,14391,1,-160.717,-106.114,6.82184,-160.717,-1.58661
block_1,10141,9,14392,1,-160.231,-105.211,6.84783,-160.231,-1.58662
block_1,10142,9,14393,1,-176.068,-116.261,5.79377,-176.068,-1.62915
block_1,10143,9,14394,1,-175.535,-115.272,5.81584,-175.535,-1.62916
block_1,10144,9,14395,1,-194.854,-132.782,4.56541,-194.854,-1.6644
block_1,10145,9,14396,1,-194.288,-131.731,4.58321,-194.288,-1.66441
block_1,10146,9,14397,1,-210.496,-143.456,3.37812,-210.496,-1.69181
block_1,10147,9,14398,1,-209.885,-142.321,3.39129,-209.885,-1.69182
block_1,10148,9,14399,1,-193.72,-130.677,4.60101,-193.72,-1.66441
block_1,10149,9,14400,1,-193.15,-129.618,4.6188,-193.15,-1.66442
block_1,10150,9,14401,1,-209.272,-141.182,3.40445,-209.272,-1.69183
block_1,10151,9,14402,1,-208.656,-140.039,3.41762,-208.656,-1.69184
block_1,10152,9,14403,1,-226.148,-154.139,2.09946,-226.148,-1.71072
block_1,10153,9,14404,1,-225.491,-152.921,2.10764,-225.491,-1.71073
block_1,10154,9,14405,1,-241.809,-164.833,0.729435,-241.809,-1.72049
block_1,10155,9,14406,1,-241.108,-163.53,0.732269,-241.108,-1.7205
block_1,10156,9,14407,1,-224.832,-151.697,2.11582,-224.832,-1.71074
block_1,10157,9,14408,1,-224.171,-150.469,2.12399,-224.171,-1.71074
block_1,10158,9,14409,1,-240.404,-162.222,0.735102,-240.404,-1.72051
block_1,10159,9,14410,1,-239.697,-160.909,0.737935,-239.697,-1.72051
block_1,10160,9,14411,1,-192.578,-128.555,4.6366,-192.578,-1.66443
block_1,10161,9,14412,1,-192.003,-127.488,4.6544,-192.003,-1.66444
block_1,10162,9,14413,1,-208.038,-138.891,3.43078,-208.038,-1.69184
block_1,10163,9,14414,1,-207.417,-137.738,3.44395,-207.417,-1.69185
block_1,10164,9,14415,1,-191.427,-126.417,4.67219,-191.427,-1.66444
block_1,10165,9,14416,1,-190.848,-125.342,4.68999,-190.848,-1.66445
block_1,10166,9,14417,1,-206.794,-136.582,3.45711,-206.794,-1.69186
block_1,10167,9,14418,1,-206.169,-135.42,3.47028,-206.169,-1.69187
block_1,10168,9,14419,1,-223.507,-149.236,2.13217,-223.507,-1.71075
block_1,10169,9,14420,1,-222.841,-147.998,2.14035,-222.841,-1.71076
block_1,10170,9,14421,1,-238.987,-159.591,0.740768,-238.987,-1.72052
block_1,10171,9,14422,1,-238.274,-158.268,0.7436,-238.274,-1.72053
block_1,10172,9,14423,1,-222.172,-146.756,2.14852,-222.172,-1.71076
block_1,10173,9,14424,1,-221.5,-145.509,2.1567,-221.5,-1.71077
block_1,10174,9,14425,1,-237.559,-156.94,0.746432,-237.559,-1.72053
block_1,10175,9,14426,1,-236.841,-155.607,0.749263,-236.841,-1.72054
block_1,10176,9,14427,1,-129.249,-84.3758,8.66298,-129.249,-1.48234
block_1,10177,9,14428,1,-128.852,-83.6393,8.69574,-128.852,-1.48234
block_1,10178,9,14429,1,-144.492,-94.3367,7.81551,-144.492,-1.53748
block_1,10179,9,14430,1,-144.049,-93.5135,7.84506,-144.049,-1.53748
block_1,10180,9,14431,1,-128.454,-82.9,8.7285,-128.454,-1.48235
block_1,10181,9,14432,1,-128.054,-82.1579,8.76126,-128.054,-1.48236
block_1,10182,9,14433,1,-143.604,-92.6872,7.87462,-143.604,-1.53749
block_1,10183,9,14434,1,-143.157,-91.8578,7.90417,-143.157,-1.5375
block_1,10184,9,14435,1,-159.743,-104.304,6.87382,-159.743,-1.58663
block_1,10185,9,14436,1,-159.253,-103.394,6.89981,-159.253,-1.58664
block_1,10186,9,14437,1,-175,-114.279,5.83791,-175,-1.62917
block_1,10187,9,14438,1,-174.464,-113.283,5.85999,-174.464,-1.62918
block_1,10188,9,14439,1,-158.761,-102.481,6.9258,-158.761,-1.58665
block_1,10189,9,14440,1,-158.267,-101.564,6.95179,-158.267,-1.58665
block_1,10190,9,14441,1,-173.925,-112.283,5.88206,-173.925,-1.62918
block_1,10191,9,14442,1,-173.384,-111.278,5.90413,-173.384,-1.62919
block_1,10192,9,14443,1,-127.653,-81.4131,8.79402,-127.653,-1.48237
block_1,10193,9,14444,1,-127.251,-80.6655,8.82678,-127.251,-1.48237
block_1,10194,9,14445,1,-142.709,-91.0253,7.93373,-142.709,-1.53751
block_1,10195,9,14446,1,-142.259,-90.1896,7.96328,-142.259,-1.53752
block_1,10196,9,14447,1,-126.847,-79.9151,8.85954,-126.847,-1.48238
block_1,10197,9,14448,1,-126.441,-79.1619,8.89231,-126.441,-1.48239
block_1,10198,9,14449,1,-141.807,-89.3509,7.99284,-141.807,-1.53752
block_1,10199,9,14450,1,-141.354,-88.509,8.02239,-141.354,-1.53753
block_1,10200,9,14451,1,-157.772,-100.644,6.97779,-157.772,-1.58666
block_1,10201,9,14452,1,-157.274,-99.7205,7.00378,-157.274,-1.58667
block_1,10202,9,14453,1,-172.842,-110.271,5.9262,-172.842,-1.6292
block_1,10203,9,14454,1,-172.297,-109.259,5.94827,-172.297,-1.62921
block_1,10204,9,14455,1,-156.775,-98.7934,7.02977,-156.775,-1.58668
block_1,10205,9,14456,1,-156.274,-97.8629,7.05576,-156.274,-1.58669
block_1,10206,9,14457,1,-171.75,-108.243,5.97034,-171.75,-1.62922
block_1,10207,9,14458,1,-171.201,-107.224,5.99242,-171.201,-1.62922
block_1,10208,9,14459,1,-190.266,-124.263,4.70779,-190.266,-1.66446
block_1,10209,9,14460,1,-189.683,-123.179,4.72558,-189.683,-1.66447
block_1,10210,9,14461,1,-205.541,-134.255,3.48344,-205.541,-1.69187
block_1,10211,9,14462,1,-204.911,-133.085,3.49661,-204.911,-1.69188
block_1,10212,9,14463,1,-189.098,-122.092,4.74338,-189.098,-1.66447
block_1,10213,9,14464,1,-188.51,-121.001,4.76118,-188.51,-1.66448
block_1,10214,9,14465,1,-204.279,-131.91,3.50977,-204.279,-1.69189
block_1,10215,9,14466,1,-203.644,-130.732,3.52293,-203.644,-1.6919
block_1,10216,9,14467,1,-220.826,-144.257,2.16488,-220.826,-1.71078
block_1,10217,9,14468,1,-220.149,-143,2.17305,-220.149,-1.71079
block_1,10218,9,14469,1,-236.12,-154.269,0.752094,-236.12,-1.72055
block_1,10219,9,14470,1,-235.397,-152.925,0.754925,-235.397,-1.72055
block_1,10220,9,14471,1,-219.47,-141.738,2.18123,-219.47,-1.71079
block_1,10221,9,14472,1,-218.788,-140.472,2.1894,-218.788,-1.7108
block_1,10222,9,14473,1,-234.671,-151.577,0.757755,-234.671,-1.72056
block_1,10223,9,14474,1,-233.942,-150.223,0.760585,-233.942,-1.72057
block_1,10224,9,14475,1,-187.92,-119.905,4.77897,-187.92,-1.66449
block_1,10225,9,14476,1,-187.328,-118.805,4.79677,-187.328,-1.6645
block_1,10226,9,14477,1,-203.007,-129.548,3.5361,-203.007,-1.6919
block_1,10227,9,14478,1,-202.367,-128.361,3.54926,-202.367,-1.69191
block_1,10228,9,14479,1,-186.733,-117.702,4.81456,-186.733,-1.66451
block_1,10229,9,14480,1,-186.137,-116.594,4.83236,-186.137,-1.66451
block_1,10230,9,14481,1,-201.726,-127.169,3.56242,-201.726,-1.69192
block_1,10231,9,14482,1,-201.081,-125.972,3.57559,-201.081,-1.69193
block_1,10232,9,14483,1,-218.104,-139.201,2.19758,-218.104,-1.71081
block_1,10233,9,14484,1,-217.417,-137.926,2.20575,-217.417,-1.71082
block_1,10234,9,14485,1,-233.211,-148.865,0.763415,-233.211,-1.72058
block_1,10235,9,14486,1,-232.476,-147.501,0.766244,-232.476,-1.72058
block_1,10236,9,14487,1,-216.727,-136.645,2.21393,-216.727,-1.71082
block_1,10237,9,14488,1,-216.035,-135.36,2.2221,-216.035,-1.71083
block_1,10238,9,14489,1,-231.739,-146.132,0.769073,-231.739,-1.72059
block_1,10239,9,14490,1,-230.999,-144.758,0.771901,-230.999,-1.7206
block_1,10240,9,14491,1,-15.261,-4.49805,12.4155,-7.26919,-0.901406
block_1,10241,9,14492,1,-15.2804,-4.45385,12.4611,-7.24541,-0.901413
block_1,10242,9,14493,1,-22.6562,-13.7279,12.3189,-22.1061,-0.981745
block_1,10243,9,14494,1,-22.5967,-13.5943,12.3642,-22.0342,-0.981752
block_1,10244,9,14495,1,-15.2997,-4.4095,12.5067,-7.22154,-0.901421
block_1,10245,9,14496,1,-15.3191,-4.36497,12.5523,-7.19758,-0.90143
block_1,10246,9,14497,1,-22.5371,-13.4603,12.4094,-21.9621,-0.981761
block_1,10247,9,14498,1,-22.4774,-13.3258,12.4546,-21.8897,-0.98177
block_1,10248,9,14499,1,-36.9441,-22.9587,12.1253,-36.9441,-1.06114
block_1,10249,9,14500,1,-36.8241,-22.7359,12.1698,-36.8241,-1.06115
block_1,10250,9,14501,1,-51.7838,-32.1914,11.8346,-51.7838,-1.13896
block_1,10251,9,14502,1,-51.6157,-31.8792,11.8781,-51.6157,-1.13897
block_1,10252,9,14503,1,-36.7037,-22.5122,12.2144,-36.7037,-1.06116
block_1,10253,9,14504,1,-36.5828,-22.2878,12.2589,-36.5828,-1.06117
block_1,10254,9,14505,1,-51.4471,-31.5659,11.9215,-51.4471,-1.13898
block_1,10255,9,14506,1,-51.2777,-31.2514,11.965,-51.2777,-1.13899
block_1,10256,9,14507,1,-15.3384,-4.32029,12.5978,-7.17353,-0.901439
block_1,10257,9,14508,1,-15.3577,-4.27544,12.6434,-7.1494,-0.90145
block_1,10258,9,14509,1,-22.4175,-13.1908,12.4999,-21.817,-0.981779
block_1,10259,9,14510,1,-22.3576,-13.0554,12.5451,-21.7441,-0.98179
block_1,10260,9,14511,1,-15.3769,-4.23042,12.689,-7.12518,-0.901461
block_1,10261,9,14512,1,-15.3962,-4.18525,12.7346,-7.10088,-0.901473
block_1,10262,9,14513,1,-22.2976,-12.9194,12.5903,-21.6709,-0.981802
block_1,10263,9,14514,1,-22.2375,-12.7829,12.6356,-21.5974,-0.981814
block_1,10264,9,14515,1,-36.4615,-22.0625,12.3034,-36.4615,-1.06118
block_1,10265,9,14516,1,-36.3398,-21.8364,12.3479,-36.3398,-1.06119
block_1,10266,9,14517,1,-51.1078,-30.9359,12.0084,-51.1078,-1.139
block_1,10267,9,14518,1,-50.9373,-30.6191,12.0519,-50.9373,-1.13901
block_1,10268,9,14519,1,-36.2176,-21.6094,12.3924,-36.2176,-1.0612
block_1,10269,9,14520,1,-36.095,-21.3817,12.437,-36.095,-1.06121
block_1,10270,9,14521,1,-50.7661,-30.3012,12.0953,-50.7661,-1.13902
block_1,10271,9,14522,1,-50.5944,-29.9822,12.1388,-50.5944,-1.13903
block_1,10272,9,14523,1,-66.626,-41.4265,11.4469,-66.626,-1.21458
block_1,10273,9,14524,1,-66.4099,-41.025,11.4889,-66.4099,-1.21459
block_1,10274,9,14525,1,-81.4714,-50.6648,10.962,-81.4714,-1.28736
block_1,10275,9,14526,1,-81.2072,-50.174,11.0023,-81.2072,-1.28737
block_1,10276,9,14527,1,-66.1929,-40.622,11.5309,-66.1929,-1.2146
block_1,10277,9,14528,1,-65.9751,-40.2176,11.5729,-65.9751,-1.21461
block_1,10278,9,14529,1,-80.9419,-49.6814,11.0425,-80.9419,-1.28738
block_1,10279,9,14530,1,-80.6757,-49.187,11.0827,-80.6757,-1.28739
block_1,10280,9,14531,1,-96.3208,-59.907,10.3801,-96.3208,-1.35668
block_1,10281,9,14532,1,-96.0084,-59.3269,10.4182,-96.0084,-1.35669
block_1,10282,9,14533,1,-111.175,-69.1538,9.70112,-111.175,-1.4219
block_1,10283,9,14534,1,-110.814,-68.4844,9.73673,-110.814,-1.42191
block_1,10284,9,14535,1,-95.6949,-58.7446,10.4563,-95.6949,-1.3567
block_1,10285,9,14536,1,-95.3802,-58.1603,10.4944,-95.3802,-1.35671
block_1,10286,9,14537,1,-110.452,-67.8125,9.77234,-110.452,-1.42192
block_1,10287,9,14538,1,-110.089,-67.1381,9.80795,-110.089,-1.42193
block_1,10288,9,14539,1,-65.7566,-39.8117,11.615,-65.7566,-1.21462
block_1,10289,9,14540,1,-65.5373,-39.4044,11.657,-65.5373,-1.21463
block_1,10290,9,14541,1,-80.4086,-48.6908,11.123,-80.4086,-1.2874
block_1,10291,9,14542,1,-80.1404,-48.1928,11.1632,-80.1404,-1.28741
block_1,10292,9,14543,1,-65.3171,-38.9955,11.699,-65.3171,-1.21464
block_1,10293,9,14544,1,-65.0962,-38.5852,11.741,-65.0962,-1.21465
block_1,10294,9,14545,1,-79.8713,-47.693,11.2035,-79.8713,-1.28742
block_1,10295,9,14546,1,-79.6012,-47.1914,11.2437,-79.6012,-1.28743
block_1,10296,9,14547,1,-95.0644,-57.5738,10.5325,-95.0644,-1.35672
block_1,10297,9,14548,1,-94.7475,-56.9851,10.5706,-94.7475,-1.35673
block_1,10298,9,14549,1,-109.725,-66.4613,9.84357,-109.725,-1.42194
block_1,10299,9,14550,1,-109.359,-65.7821,9.87918,-109.359,-1.42195
block_1,10300,9,14551,1,-94.4294,-56.3944,10.6087,-94.4294,-1.35674
block_1,10301,9,14552,1,-94.1101,-55.8015,10.6468,-94.1101,-1.35675
block_1,10302,9,14553,1,-108.992,-65.1004,9.91479,-108.992,-1.42196
block_1,10303,9,14554,1,-108.624,-64.4162,9.9504,-108.624,-1.42197
block_1,10304,9,14555,1,-15.4154,-4.13991,12.7802,-7.07648,-0.901487
block_1,10305,9,14556,1,-15.4346,-4.0944,12.8258,-7.052,-0.901502
block_1,10306,9,14557,1,-22.1773,-12.646,12.6808,-21.5237,-0.981828
block_1,10307,9,14558,1,-22.117,-12.5085,12.726,-21.4497,-0.981844
block_1,10308,9,14559,1,-15.4538,-4.04873,12.8714,-7.02743,-0.901519
block_1,10309,9,14560,1,-15.473,-4.0029,12.917,-7.00277,-0.901538
block_1,10310,9,14561,1,-22.0565,-12.3706,12.7713,-21.3754,-0.981861
block_1,10311,9,14562,1,-21.996,-12.2322,12.8165,-21.3009,-0.98188
block_1,10312,9,14563,1,-35.9719,-21.1531,12.4815,-35.9719,-1.06123
block_1,10313,9,14564,1,-35.8484,-20.9237,12.526,-35.8484,-1.06124
block_1,10314,9,14565,1,-50.422,-29.662,12.1822,-50.422,-1.13905
block_1,10315,9,14566,1,-50.249,-29.3407,12.2257,-50.249,-1.13906
block_1,10316,9,14567,1,-35.7245,-20.6935,12.5705,-35.7245,-1.06126
block_1,10317,9,14568,1,-35.6001,-20.4625,12.615,-35.6001,-1.06128
block_1,10318,9,14569,1,-50.0753,-29.0182,12.2691,-50.0753,-1.13908
block_1,10319,9,14570,1,-49.9011,-28.6946,12.3126,-49.9011,-1.1391
block_1,10320,9,14571,1,-15.4921,-3.9569,12.9626,-6.97803,-0.901559
block_1,10321,9,14572,1,-15.5113,-3.91073,13.0082,-6.95319,-0.901582
block_1,10322,9,14573,1,-21.9354,-12.0933,12.8617,-21.2261,-0.981901
block_1,10323,9,14574,1,-21.8747,-11.9538,12.907,-21.1511,-0.981925
block_1,10324,9,14575,1,-15.5304,-3.8644,13.0537,-6.92827,-0.901608
block_1,10325,9,14576,1,-15.5495,-3.81791,13.0993,-6.90327,-0.901637
block_1,10326,9,14577,1,-21.814,-11.8139,12.9522,-21.0758,-0.981951
block_1,10327,9,14578,1,-21.7531,-11.6735,12.9974,-21.0002,-0.98198
block_1,10328,9,14579,1,-35.4753,-20.2307,12.6595,-35.4753,-1.0613
block_1,10329,9,14580,1,-35.35,-19.998,12.7041,-35.35,-1.06132
block_1,10330,9,14581,1,-49.7262,-28.3699,12.356,-49.7262,-1.13912
block_1,10331,9,14582,1,-49.5508,-28.044,12.3995,-49.5508,-1.13914
block_1,10332,9,14583,1,-35.2244,-19.7645,12.7486,-35.2244,-1.06135
block_1,10333,9,14584,1,-35.0982,-19.5302,12.7931,-35.0982,-1.06138
block_1,10334,9,14585,1,-49.3747,-27.7169,12.4429,-49.3747,-1.13917
block_1,10335,9,14586,1,-49.198,-27.3887,12.4864,-49.198,-1.1392
block_1,10336,9,14587,1,-64.8745,-38.1734,11.7831,-64.8745,-1.21467
block_1,10337,9,14588,1,-64.652,-37.7602,11.8251,-64.652,-1.21468
block_1,10338,9,14589,1,-79.3302,-46.688,11.284,-79.3302,-1.28745
block_1,10339,9,14590,1,-79.0581,-46.1828,11.3242,-79.0581,-1.28746
block_1,10340,9,14591,1,-64.4287,-37.3454,11.8671,-64.4287,-1.2147
block_1,10341,9,14592,1,-64.2046,-36.9292,11.9091,-64.2046,-1.21472
block_1,10342,9,14593,1,-78.7852,-45.6758,11.3644,-78.7852,-1.28748
block_1,10343,9,14594,1,-78.5112,-45.167,11.4047,-78.5112,-1.2875
block_1,10344,9,14595,1,-93.7897,-55.2065,10.6849,-93.7897,-1.35677
block_1,10345,9,14596,1,-93.4682,-54.6094,10.723,-93.4682,-1.35678
block_1,10346,9,14597,1,-108.254,-63.7296,9.98601,-108.254,-1.42199
block_1,10347,9,14598,1,-107.883,-63.0405,10.0216,-107.883,-1.422
block_1,10348,9,14599,1,-93.1455,-54.0101,10.7612,-93.1455,-1.35679
block_1,10349,9,14600,1,-92.8217,-53.4087,10.7993,-92.8217,-1.35681
block_1,10350,9,14601,1,-107.511,-62.349,10.0572,-107.511,-1.42201
block_1,10351,9,14602,1,-107.137,-61.655,10.0928,-107.137,-1.42203
block_1,10352,9,14603,1,-63.9797,-36.5115,11.9511,-63.9797,-1.21474
block_1,10353,9,14604,1,-63.754,-36.0924,11.9932,-63.754,-1.21476
block_1,10354,9,14605,1,-78.2363,-44.6564,11.4449,-78.2363,-1.28752
block_1,10355,9,14606,1,-77.9604,-44.144,11.4852,-77.9604,-1.28754
block_1,10356,9,14607,1,-63.5275,-35.6718,12.0352,-63.5275,-1.21478
block_1,10357,9,14608,1,-63.3002,-35.2496,12.0772,-63.3002,-1.21481
block_1,10358,9,14609,1,-77.6835,-43.6298,11.5254,-77.6835,-1.28756
block_1,10359,9,14610,1,-77.4057,-43.1138,11.5656,-77.4057,-1.28759
block_1,10360,9,14611,1,-92.4968,-52.8052,10.8374,-92.4968,-1.35683
block_1,10361,9,14612,1,-92.1707,-52.1995,10.8755,-92.1707,-1.35685
block_1,10362,9,14613,1,-106.762,-60.9585,10.1284,-106.762,-1.42205
block_1,10363,9,14614,1,-106.386,-60.2597,10.164,-106.386,-1.42207
block_1,10364,9,14615,1,-91.8434,-51.5917,10.9135,-91.8434,-1.35687
block_1,10365,9,14616,1,-91.515,-50.9818,10.9516,-91.515,-1.35689
block_1,10366,9,14617,1,-106.008,-59.5583,10.1996,-106.008,-1.42209
block_1,10367,9,14618,1,-105.629,-58.8545,10.2352,-105.629,-1.42211
block_1,10368,9,14619,1,-126.034,-78.4059,8.92507,-126.034,-1.4824
block_1,10369,9,14620,1,-125.625,-77.6472,8.95783,-125.625,-1.48241
block_1,10370,9,14621,1,-140.899,-87.6641,8.05194,-140.899,-1.53754
block_1,10371,9,14622,1,-140.442,-86.816,8.0815,-140.442,-1.53755
block_1,10372,9,14623,1,-125.215,-76.8856,8.99059,-125.215,-1.48242
block_1,10373,9,14624,1,-124.804,-76.1213,9.02335,-124.804,-1.48243
block_1,10374,9,14625,1,-139.984,-85.9648,8.11105,-139.984,-1.53756
block_1,10375,9,14626,1,-139.524,-85.1105,8.14061,-139.524,-1.53757
block_1,10376,9,14627,1,-155.771,-96.929,7.08175,-155.771,-1.58669
block_1,10377,9,14628,1,-155.266,-95.9916,7.10774,-155.266,-1.5867
block_1,10378,9,14629,1,-170.651,-106.201,6.01449,-170.651,-1.62923
block_1,10379,9,14630,1,-170.098,-105.175,6.03656,-170.098,-1.62924
block_1,10380,9,14631,1,-154.76,-95.0508,7.13373,-154.76,-1.58671
block_1,10381,9,14632,1,-154.251,-94.1065,7.15972,-154.251,-1.58672
block_1,10382,9,14633,1,-169.543,-104.144,6.05863,-169.543,-1.62925
block_1,10383,9,14634,1,-168.986,-103.11,6.0807,-168.986,-1.62926
block_1,10384,9,14635,1,-124.391,-75.3542,9.05611,-124.391,-1.48244
block_1,10385,9,14636,1,-123.976,-74.5843,9.08887,-123.976,-1.48245
block_1,10386,9,14637,1,-139.062,-84.2531,8.17016,-139.062,-1.53758
block_1,10387,9,14638,1,-138.599,-83.3926,8.19971,-138.599,-1.53759
block_1,10388,9,14639,1,-123.56,-73.8117,9.12163,-123.56,-1.48246
block_1,10389,9,14640,1,-123.142,-73.0362,9.15439,-123.142,-1.48247
block_1,10390,9,14641,1,-138.134,-82.529,8.22927,-138.134,-1.5376
block_1,10391,9,14642,1,-137.667,-81.6623,8.25882,-137.667,-1.53761
block_1,10392,9,14643,1,-153.741,-93.1588,7.18571,-153.741,-1.58673
block_1,10393,9,14644,1,-153.229,-92.2077,7.2117,-153.229,-1.58674
block_1,10394,9,14645,1,-168.427,-102.072,6.10277,-168.427,-1.62927
block_1,10395,9,14646,1,-167.866,-101.03,6.12484,-167.866,-1.62928
block_1,10396,9,14647,1,-152.715,-91.2531,7.23769,-152.715,-1.58675
block_1,10397,9,14648,1,-152.199,-90.2951,7.26368,-152.199,-1.58676
block_1,10398,9,14649,1,-167.303,-99.9846,6.14691,-167.303,-1.62929
block_1,10399,9,14650,1,-166.738,-98.9353,6.16898,-166.738,-1.62929
block_1,10400,9,14651,1,-185.538,-115.482,4.85015,-185.538,-1.66452
block_1,10401,9,14652,1,-184.937,-114.366,4.86795,-184.937,-1.66453
block_1,10402,9,14653,1,-200.435,-124.771,3.58875,-200.435,-1.69193
block_1,10403,9,14654,1,-199.785,-123.566,3.60191,-199.785,-1.69194
block_1,10404,9,14655,1,-184.334,-113.246,4.88574,-184.334,-1.66454
block_1,10405,9,14656,1,-183.729,-112.121,4.90354,-183.729,-1.66455
block_1,10406,9,14657,1,-199.134,-122.356,3.61507,-199.134,-1.69195
block_1,10407,9,14658,1,-198.48,-121.142,3.62824,-198.48,-1.69196
block_1,10408,9,14659,1,-215.341,-134.07,2.23027,-215.341,-1.71084
block_1,10409,9,14660,1,-214.643,-132.775,2.23845,-214.643,-1.71085
block_1,10410,9,14661,1,-230.257,-143.379,0.774729,-230.257,-1.7206
block_1,10411,9,14662,1,-229.512,-141.995,0.777557,-229.512,-1.72061
block_1,10412,9,14663,1,-213.944,-131.476,2.24662,-213.944,-1.71085
block_1,10413,9,14664,1,-213.241,-130.172,2.25479,-213.241,-1.71086
block_1,10414,9,14665,1,-228.764,-140.606,0.780384,-228.764,-1.72062
block_1,10415,9,14666,1,-228.013,-139.212,0.783211,-228.013,-1.72063
block_1,10416,9,14667,1,-183.121,-110.993,4.92133,-183.121,-1.66456
block_1,10417,9,14668,1,-182.511,-109.861,4.93913,-182.511,-1.66456
block_1,10418,9,14669,1,-197.824,-119.923,3.6414,-197.824,-1.69197
block_1,10419,9,14670,1,-197.165,-118.7,3.65456,-197.165,-1.69197
block_1,10420,9,14671,1,-181.899,-108.724,4.95692,-181.899,-1.66457
block_1,10421,9,14672,1,-181.285,-107.584,4.97471,-181.285,-1.66458
block_1,10422,9,14673,1,-196.505,-117.473,3.66772,-196.505,-1.69198
block_1,10423,9,14674,1,-195.841,-116.241,3.68088,-195.841,-1.69199
block_1,10424,9,14675,1,-212.537,-128.863,2.26296,-212.537,-1.71087
block_1,10425,9,14676,1,-211.829,-127.549,2.27114,-211.829,-1.71088
block_1,10426,9,14677,1,-227.259,-137.813,0.786037,-227.259,-1.72063
block_1,10427,9,14678,1,-226.503,-136.409,0.788863,-226.503,-1.72064
block_1,10428,9,14679,1,-211.119,-126.231,2.27931,-211.119,-1.71088
block_1,10429,9,14680,1,-210.407,-124.908,2.28748,-210.407,-1.71089
block_1,10430,9,14681,1,-225.744,-134.999,0.791689,-225.744,-1.72065
block_1,10431,9,14682,1,-224.983,-133.585,0.794514,-224.983,-1.72066
block_1,10432,9,14683,1,-122.723,-72.258,9.18715,-122.723,-1.48248
block_1,10433,9,14684,1,-122.303,-71.477,9.21991,-122.303,-1.48249
block_1,10434,9,14685,1,-137.199,-80.7924,8.28837,-137.199,-1.53762
block_1,10435,9,14686,1,-136.729,-79.9195,8.31792,-136.729,-1.53763
block_1,10436,9,14687,1,-121.881,-70.6932,9.25266,-121.881,-1.48251
block_1,10437,9,14688,1,-121.457,-69.9066,9.28542,-121.457,-1.48252
block_1,10438,9,14689,1,-136.257,-79.0434,8.34747,-136.257,-1.53764
block_1,10439,9,14690,1,-135.784,-78.1642,8.37702,-135.784,-1.53766
block_1,10440,9,14691,1,-151.681,-89.3336,7.28967,-151.681,-1.58677
block_1,10441,9,14692,1,-151.162,-88.3687,7.31566,-151.162,-1.58678
block_1,10442,9,14693,1,-166.171,-97.8822,6.19105,-166.171,-1.6293
block_1,10443,9,14694,1,-165.602,-96.8254,6.21311,-165.602,-1.62931
block_1,10444,9,14695,1,-150.64,-87.4004,7.34164,-150.64,-1.58679
block_1,10445,9,14696,1,-150.117,-86.4286,7.36763,-150.117,-1.58681
block_1,10446,9,14697,1,-165.031,-95.7648,6.23518,-165.031,-1.62933
block_1,10447,9,14698,1,-164.458,-94.7005,6.25725,-164.458,-1.62934
block_1,10448,9,14699,1,-121.032,-69.1172,9.31817,-121.032,-1.48254
block_1,10449,9,14700,1,-120.606,-68.3251,9.35093,-120.606,-1.48255
block_1,10450,9,14701,1,-135.309,-77.282,8.40657,-135.309,-1.53767
block_1,10451,9,14702,1,-134.832,-76.3966,8.43611,-134.832,-1.53769
block_1,10452,9,14703,1,-120.178,-67.5302,9.38368,-120.178,-1.48257
block_1,10453,9,14704,1,-119.748,-66.7325,9.41643,-119.748,-1.48259
block_1,10454,9,14705,1,-134.354,-75.5081,8.46565,-134.354,-1.5377
block_1,10455,9,14706,1,-133.873,-74.6165,8.4952,-133.873,-1.53772
block_1,10456,9,14707,1,-149.592,-85.4534,7.39361,-149.592,-1.58682
block_1,10457,9,14708,1,-149.065,-84.4748,7.41959,-149.065,-1.58683
block_1,10458,9,14709,1,-163.883,-93.6323,6.27931,-163.883,-1.62935
block_1,10459,9,14710,1,-163.305,-92.5604,6.30137,-163.305,-1.62936
block_1,10460,9,14711,1,-148.536,-83.4927,7.44557,-148.536,-1.58685
block_1,10461,9,14712,1,-148.006,-82.5072,7.47155,-148.006,-1.58686
block_1,10462,9,14713,1,-162.726,-91.4848,6.32343,-162.726,-1.62937
block_1,10463,9,14714,1,-162.145,-90.4054,6.34549,-162.145,-1.62939
block_1,10464,9,14715,1,-180.669,-106.439,4.9925,-180.669,-1.66459
block_1,10465,9,14716,1,-180.05,-105.29,5.01029,-180.05,-1.6646
block_1,10466,9,14717,1,-195.176,-115.005,3.69404,-195.176,-1.692
block_1,10467,9,14718,1,-194.507,-113.764,3.70719,-194.507,-1.69201
block_1,10468,9,14719,1,-179.429,-104.137,5.02808,-179.429,-1.66461
block_1,10469,9,14720,1,-178.806,-102.98,5.04587,-178.806,-1.66462
block_1,10470,9,14721,1,-193.837,-112.519,3.72035,-193.837,-1.69202
block_1,10471,9,14722,1,-193.164,-111.269,3.73351,-193.164,-1.69203
block_1,10472,9,14723,1,-209.692,-123.58,2.29565,-209.692,-1.7109
block_1,10473,9,14724,1,-208.974,-122.247,2.30382,-208.974,-1.71091
block_1,10474,9,14725,1,-224.218,-132.165,0.797338,-224.218,-1.72066
block_1,10475,9,14726,1,-223.451,-130.741,0.800163,-223.451,-1.72067
block_1,10476,9,14727,1,-208.254,-120.91,2.31199,-208.254,-1.71092
block_1,10477,9,14728,1,-207.531,-119.568,2.32015,-207.531,-1.71093
block_1,10478,9,14729,1,-222.681,-129.311,0.802986,-222.681,-1.72068
block_1,10479,9,14730,1,-221.909,-127.876,0.805809,-221.909,-1.72069
block_1,10480,9,14731,1,-178.181,-101.819,5.06366,-178.181,-1.66463
block_1,10481,9,14732,1,-177.554,-100.654,5.08145,-177.554,-1.66464
block_1,10482,9,14733,1,-192.489,-110.015,3.74666,-192.489,-1.69204
block_1,10483,9,14734,1,-191.811,-108.757,3.75982,-191.811,-1.69205
block_1,10484,9,14735,1,-176.924,-99.485,5.09923,-176.924,-1.66465
block_1,10485,9,14736,1,-176.293,-98.3117,5.11701,-176.293,-1.66466
block_1,10486,9,14737,1,-191.131,-107.494,3.77297,-191.131,-1.69206
block_1,10487,9,14738,1,-190.449,-106.227,3.78612,-190.449,-1.69207
block_1,10488,9,14739,1,-206.806,-118.221,2.32832,-206.806,-1.71093
block_1,10489,9,14740,1,-206.078,-116.869,2.33649,-206.078,-1.71094
block_1,10490,9,14741,1,-221.134,-126.437,0.808632,-221.134,-1.72069
block_1,10491,9,14742,1,-220.356,-124.992,0.811453,-220.356,-1.7207
block_1,10492,9,14743,1,-205.348,-115.513,2.34465,-205.348,-1.71095
block_1,10493,9,14744,1,-204.615,-114.152,2.35282,-204.615,-1.71096
block_1,10494,9,14745,1,-219.575,-123.542,0.814275,-219.575,-1.72071
block_1,10495,9,14746,1,-218.791,-122.087,0.817095,-218.791,-1.72072
block_1,10496,9,14747,1,-15.5685,-3.77125,13.1449,-6.87817,-0.901669
block_1,10497,9,14748,1,-15.5875,-3.72442,13.1905,-6.85299,-0.901704
block_1,10498,9,14749,1,-21.6921,-11.5326,13.0427,-20.9244,-0.982011
block_1,10499,9,14750,1,-21.631,-11.3913,13.0879,-20.8483,-0.982047
block_1,10500,9,14751,1,-15.6066,-3.67742,13.2361,-6.82771,-0.901743
block_1,10501,9,14752,1,-15.6255,-3.63025,13.2817,-6.80235,-0.901785
block_1,10502,9,14753,1,-21.5699,-11.2494,13.1331,-20.7719,-0.982085
block_1,10503,9,14754,1,-21.5086,-11.107,13.1784,-20.6953,-0.982127
block_1,10504,9,14755,1,-34.9716,-19.2951,12.8376,-34.9716,-1.06141
block_1,10505,9,14756,1,-34.8446,-19.0592,12.8821,-34.8446,-1.06144
block_1,10506,9,14757,1,-49.0207,-27.0593,12.5298,-49.0207,-1.13923
block_1,10507,9,14758,1,-48.8427,-26.7288,12.5732,-48.8427,-1.13926
block_1,10508,9,14759,1,-34.7172,-18.8224,12.9266,-34.7172,-1.06148
block_1,10509,9,14760,1,-34.5893,-18.5848,12.9712,-34.5893,-1.06152
block_1,10510,9,14761,1,-48.6642,-26.3972,12.6167,-48.6642,-1.1393
block_1,10511,9,14762,1,-48.485,-26.0644,12.6601,-48.485,-1.13934
block_1,10512,9,14763,1,-15.6445,-3.58292,13.3273,-6.77691,-0.90183
block_1,10513,9,14764,1,-15.6635,-3.53541,13.3729,-6.75137,-0.901879
block_1,10514,9,14765,1,-21.4473,-10.9641,13.2236,-20.6184,-0.982172
block_1,10515,9,14766,1,-21.3858,-10.8207,13.2688,-20.5412,-0.982221
block_1,10516,9,14767,1,-15.6824,-3.48774,13.4185,-6.72574,-0.901931
block_1,10517,9,14768,1,-15.7013,-3.43989,13.4641,-6.70003,-0.901985
block_1,10518,9,14769,1,-21.3243,-10.6769,13.314,-20.4638,-0.982272
block_1,10519,9,14770,1,-21.2627,-10.5325,13.3593,-20.3861,-0.982327
block_1,10520,9,14771,1,-34.4609,-18.3464,13.0157,-34.4609,-1.06157
block_1,10521,9,14772,1,-34.3321,-18.1071,13.0602,-34.3321,-1.06161
block_1,10522,9,14773,1,-48.3052,-25.7304,12.7036,-48.3052,-1.13938
block_1,10523,9,14774,1,-48.1248,-25.3953,12.747,-48.1248,-1.13943
block_1,10524,9,14775,1,-34.2029,-17.8671,13.1047,-34.2029,-1.06166
block_1,10525,9,14776,1,-34.0732,-17.6262,13.1492,-34.0732,-1.06172
block_1,10526,9,14777,1,-47.9438,-25.0591,12.7904,-47.9438,-1.13948
block_1,10527,9,14778,1,-47.7622,-24.7217,12.8339,-47.7622,-1.13953
block_1,10528,9,14779,1,-63.0722,-34.8261,12.1192,-63.0722,-1.21484
block_1,10529,9,14780,1,-62.8433,-34.401,12.1612,-62.8433,-1.21487
block_1,10530,9,14781,1,-77.1269,-42.596,11.6059,-77.1269,-1.28761
block_1,10531,9,14782,1,-76.8471,-42.0764,11.6461,-76.8471,-1.28764
block_1,10532,9,14783,1,-62.6137,-33.9745,12.2033,-62.6137,-1.21491
block_1,10533,9,14784,1,-62.3832,-33.5465,12.2453,-62.3832,-1.21494
block_1,10534,9,14785,1,-76.5664,-41.5549,11.6863,-76.5664,-1.28768
block_1,10535,9,14786,1,-76.2847,-41.0317,11.7266,-76.2847,-1.28771
block_1,10536,9,14787,1,-91.1855,-50.3698,10.9897,-91.1855,-1.35692
block_1,10537,9,14788,1,-90.8548,-49.7556,11.0278,-90.8548,-1.35695
block_1,10538,9,14789,1,-105.249,-58.1482,10.2708,-105.249,-1.42213
block_1,10539,9,14790,1,-104.867,-57.4395,10.3064,-104.867,-1.42216
block_1,10540,9,14791,1,-90.523,-49.1393,11.0659,-90.523,-1.35698
block_1,10541,9,14792,1,-90.19,-48.5209,11.104,-90.19,-1.35701
block_1,10542,9,14793,1,-104.484,-56.7283,10.342,-104.484,-1.42218
block_1,10543,9,14794,1,-104.1,-56.0147,10.3776,-104.1,-1.42221
block_1,10544,9,14795,1,-62.152,-33.117,12.2873,-62.152,-1.21498
block_1,10545,9,14796,1,-61.92,-32.686,12.3293,-61.92,-1.21503
block_1,10546,9,14797,1,-76.002,-40.5067,11.7668,-76.002,-1.28775
block_1,10547,9,14798,1,-75.7183,-39.9799,11.807,-75.7183,-1.28779
block_1,10548,9,14799,1,-61.6872,-32.2536,12.3713,-61.6872,-1.21508
block_1,10549,9,14800,1,-61.4536,-31.8196,12.4133,-61.4536,-1.21513
block_1,10550,9,14801,1,-75.4337,-39.4512,11.8472,-75.4337,-1.28784
block_1,10551,9,14802,1,-75.1481,-38.9208,11.8874,-75.1481,-1.28788
block_1,10552,9,14803,1,-89.8559,-47.9003,11.1421,-89.8559,-1.35705
block_1,10553,9,14804,1,-89.5206,-47.2776,11.1802,-89.5206,-1.35709
block_1,10554,9,14805,1,-103.714,-55.2986,10.4132,-103.714,-1.42225
block_1,10555,9,14806,1,-103.327,-54.58,10.4488,-103.327,-1.42228
block_1,10556,9,14807,1,-89.1842,-46.6528,11.2182,-89.1842,-1.35713
block_1,10557,9,14808,1,-88.8466,-46.0259,11.2563,-88.8466,-1.35717
block_1,10558,9,14809,1,-102.939,-53.859,10.4844,-102.939,-1.42232
block_1,10559,9,14810,1,-102.55,-53.1356,10.5199,-102.55,-1.42236
block_1,10560,9,14811,1,-15.7201,-3.39187,13.5097,-6.67422,-0.902042
block_1,10561,9,14812,1,-15.739,-3.34368,13.5552,-6.64833,-0.9021
block_1,10562,9,14813,1,-21.201,-10.3876,13.4045,-20.3082,-0.982383
block_1,10563,9,14814,1,-21.1392,-10.2423,13.4497,-20.2299,-0.982441
block_1,10564,9,14815,1,-15.7578,-3.29531,13.6008,-6.62234,-0.902157
block_1,10565,9,14816,1,-15.7765,-3.24677,13.6464,-6.59626,-0.902213
block_1,10566,9,14817,1,-21.0773,-10.0964,13.4949,-20.1514,-0.982498
block_1,10567,9,14818,1,-21.0153,-9.95002,13.5402,-20.0727,-0.982553
block_1,10568,9,14819,1,-33.9431,-17.3845,13.1937,-33.9431,-1.06177
block_1,10569,9,14820,1,-33.8126,-17.1419,13.2382,-33.8126,-1.06183
block_1,10570,9,14821,1,-47.5799,-24.3831,12.8773,-47.5799,-1.13958
block_1,10571,9,14822,1,-47.397,-24.0434,12.9207,-47.397,-1.13964
block_1,10572,9,14823,1,-33.6816,-16.8986,13.2827,-33.6816,-1.06189
block_1,10573,9,14824,1,-33.5502,-16.6544,13.3272,-33.5502,-1.06194
block_1,10574,9,14825,1,-47.2135,-23.7025,12.9642,-47.2135,-1.13969
block_1,10575,9,14826,1,-47.0294,-23.3605,13.0076,-47.0294,-1.13974
block_1,10576,9,14827,1,-15.7953,-3.19805,13.692,-6.57009,-0.902264
block_1,10577,9,14828,1,-15.814,-3.14916,13.7376,-6.54383,-0.902307
block_1,10578,9,14829,1,-20.9532,-9.80314,13.5854,-19.9937,-0.982604
block_1,10579,9,14830,1,-20.891,-9.65576,13.6306,-19.9144,-0.982648
block_1,10580,9,14831,1,-15.8327,-3.10009,13.7832,-6.51747,-0.90234
block_1,10581,9,14832,1,-15.8513,-3.05085,13.8288,-6.49102,-0.902357
block_1,10582,9,14833,1,-20.8288,-9.50788,13.6758,-19.8348,-0.982681
block_1,10583,9,14834,1,-20.7664,-9.35949,13.7211,-19.755,-0.982699
block_1,10584,9,14835,1,-33.4183,-16.4093,13.3717,-33.4183,-1.06199
block_1,10585,9,14836,1,-33.286,-16.1635,13.4162,-33.286,-1.06203
block_1,10586,9,14837,1,-46.8447,-23.0173,13.051,-46.8447,-1.13979
block_1,10587,9,14838,1,-46.6593,-22.673,13.0944,-46.6593,-1.13984
block_1,10588,9,14839,1,-33.1532,-15.9168,13.4607,-33.1532,-1.06207
block_1,10589,9,14840,1,-33.02,-15.6692,13.5052,-33.02,-1.06209
block_1,10590,9,14841,1,-46.4734,-22.3275,13.1378,-46.4734,-1.13987
block_1,10591,9,14842,1,-46.2868,-21.9808,13.1813,-46.2868,-1.13989
block_1,10592,9,14843,1,-61.2191,-31.3842,12.4553,-61.2191,-1.21518
block_1,10593,9,14844,1,-60.9839,-30.9473,12.4973,-60.9839,-1.21523
block_1,10594,9,14845,1,-74.8616,-38.3885,11.9276,-74.8616,-1.28793
block_1,10595,9,14846,1,-74.5741,-37.8545,11.9678,-74.5741,-1.28798
block_1,10596,9,14847,1,-60.748,-30.509,12.5393,-60.748,-1.21528
block_1,10597,9,14848,1,-60.5112,-30.0691,12.5813,-60.5112,-1.21533
block_1,10598,9,14849,1,-74.2856,-37.3186,12.008,-74.2856,-1.28803
block_1,10599,9,14850,1,-73.9961,-36.7809,12.0482,-73.9961,-1.28808
block_1,10600,9,14851,1,-88.5079,-45.3968,11.2944,-88.5079,-1.35721
block_1,10601,9,14852,1,-88.1681,-44.7656,11.3324,-88.1681,-1.35726
block_1,10602,9,14853,1,-102.159,-52.4096,10.5555,-102.159,-1.4224
block_1,10603,9,14854,1,-101.767,-51.6812,10.5911,-101.767,-1.42244
block_1,10604,9,14855,1,-87.8271,-44.1322,11.3705,-87.8271,-1.35731
block_1,10605,9,14856,1,-87.4849,-43.4967,11.4085,-87.4849,-1.35735
block_1,10606,9,14857,1,-101.373,-50.9504,10.6266,-101.373,-1.42248
block_1,10607,9,14858,1,-100.978,-50.2171,10.6622,-100.978,-1.42252
block_1,10608,9,14859,1,-60.2736,-29.6278,12.6232,-60.2736,-1.21538
block_1,10609,9,14860,1,-60.0352,-29.185,12.6652,-60.0352,-1.21542
block_1,10610,9,14861,1,-73.7056,-36.2415,12.0884,-73.7056,-1.28813
block_1,10611,9,14862,1,-73.4142,-35.7002,12.1286,-73.4142,-1.28817
block_1,10612,9,14863,1,-59.796,-28.7407,12.7072,-59.796,-1.21546
block_1,10613,9,14864,1,-59.556,-28.2949,12.7492,-59.556,-1.21548
block_1,10614,9,14865,1,-73.1218,-35.1571,12.1688,-73.1218,-1.2882
block_1,10615,9,14866,1,-72.8285,-34.6122,12.209,-72.8285,-1.28822
block_1,10616,9,14867,1,-87.1416,-42.8591,11.4466,-87.1416,-1.3574
block_1,10617,9,14868,1,-86.7972,-42.2193,11.4846,-86.7972,-1.35744
block_1,10618,9,14869,1,-100.582,-49.4813,10.6977,-100.582,-1.42257
block_1,10619,9,14870,1,-100.185,-48.7431,10.7333,-100.185,-1.4226
block_1,10620,9,14871,1,-86.4516,-41.5774,11.5227,-86.4516,-1.35747
block_1,10621,9,14872,1,-86.1048,-40.9334,11.5607,-86.1048,-1.35749
block_1,10622,9,14873,1,-99.7859,-48.0024,10.7688,-99.7859,-1.42264
block_1,10623,9,14874,1,-99.3858,-47.2592,10.8044,-99.3858,-1.42266
block_1,10624,9,14875,1,-119.317,-65.932,9.44917,-119.317,-1.48261
block_1,10625,9,14876,1,-118.885,-65.1287,9.48192,-118.885,-1.48264
block_1,10626,9,14877,1,-133.392,-73.7217,8.52473,-133.392,-1.53774
block_1,10627,9,14878,1,-132.908,-72.8239,8.55427,-132.908,-1.53776
block_1,10628,9,14879,1,-118.451,-64.3226,9.51466,-118.451,-1.48266
block_1,10629,9,14880,1,-118.015,-63.5138,9.54739,-118.015,-1.48269
block_1,10630,9,14881,1,-132.423,-71.923,8.5838,-132.423,-1.53778
block_1,10631,9,14882,1,-131.936,-71.0189,8.61333,-131.936,-1.53781
block_1,10632,9,14883,1,-147.473,-81.5183,7.49752,-147.473,-1.58688
block_1,10633,9,14884,1,-146.939,-80.5259,7.5235,-146.939,-1.5869
block_1,10634,9,14885,1,-161.562,-89.3222,6.36755,-161.562,-1.6294
block_1,10635,9,14886,1,-160.976,-88.2353,6.3896,-160.976,-1.62942
block_1,10636,9,14887,1,-146.402,-79.53,7.54947,-146.402,-1.58691
block_1,10637,9,14888,1,-145.864,-78.5308,7.57543,-145.864,-1.58694
block_1,10638,9,14889,1,-160.389,-87.1446,6.41165,-160.389,-1.62943
block_1,10639,9,14890,1,-159.8,-86.0501,6.4337,-159.8,-1.62945
block_1,10640,9,14891,1,-117.578,-62.7022,9.58012,-117.578,-1.48272
block_1,10641,9,14892,1,-117.14,-61.8877,9.61285,-117.14,-1.48275
block_1,10642,9,14893,1,-131.448,-70.1118,8.64285,-131.448,-1.53783
block_1,10643,9,14894,1,-130.958,-69.2015,8.67238,-130.958,-1.53786
block_1,10644,9,14895,1,-116.7,-61.0705,9.64558,-116.7,-1.48278
block_1,10645,9,14896,1,-116.258,-60.2506,9.67829,-116.258,-1.48282
block_1,10646,9,14897,1,-130.466,-68.2881,8.70189,-130.466,-1.53789
block_1,10647,9,14898,1,-129.973,-67.3716,8.7314,-129.973,-1.53792
block_1,10648,9,14899,1,-145.324,-77.5281,7.60139,-145.324,-1.58696
block_1,10649,9,14900,1,-144.783,-76.522,7.62735,-144.783,-1.58698
block_1,10650,9,14901,1,-159.208,-84.9519,6.45574,-159.208,-1.62947
block_1,10651,9,14902,1,-158.615,-83.8499,6.47778,-158.615,-1.62949
block_1,10652,9,14903,1,-144.239,-75.5124,7.6533,-144.239,-1.587
block_1,10653,9,14904,1,-143.694,-74.4994,7.67925,-143.694,-1.58703
block_1,10654,9,14905,1,-158.02,-82.7441,6.49981,-158.02,-1.6295
block_1,10655,9,14906,1,-157.422,-81.6346,6.52184,-157.422,-1.62953
block_1,10656,9,14907,1,-175.659,-97.1343,5.1348,-175.659,-1.66468
block_1,10657,9,14908,1,-175.022,-95.9528,5.15257,-175.022,-1.66469
block_1,10658,9,14909,1,-189.764,-104.955,3.79927,-189.764,-1.69208
block_1,10659,9,14910,1,-189.077,-103.679,3.81242,-189.077,-1.69209
block_1,10660,9,14911,1,-174.384,-94.7672,5.17035,-174.384,-1.6647
block_1,10661,9,14912,1,-173.743,-93.5776,5.18812,-173.743,-1.66472
block_1,10662,9,14913,1,-188.388,-102.399,3.82557,-188.388,-1.6921
block_1,10663,9,14914,1,-187.696,-101.114,3.83871,-187.696,-1.69211
block_1,10664,9,14915,1,-203.88,-112.786,2.36098,-203.88,-1.71097
block_1,10665,9,14916,1,-203.142,-111.415,2.36914,-203.142,-1.71098
block_1,10666,9,14917,1,-218.005,-120.627,0.819915,-218.005,-1.72072
block_1,10667,9,14918,1,-217.216,-119.161,0.822734,-217.216,-1.72073
block_1,10668,9,14919,1,-202.401,-110.04,2.3773,-202.401,-1.71099
block_1,10669,9,14920,1,-201.658,-108.66,2.38546,-201.658,-1.71099
block_1,10670,9,14921,1,-216.425,-117.691,0.825552,-216.425,-1.72074
block_1,10671,9,14922,1,-215.63,-116.216,0.828369,-215.63,-1.72075
block_1,10672,9,14923,1,-173.101,-92.3838,5.20589,-173.101,-1.66473
block_1,10673,9,14924,1,-172.456,-91.1859,5.22366,-172.456,-1.66475
block_1,10674,9,14925,1,-187.002,-99.8246,3.85185,-187.002,-1.69212
block_1,10675,9,14926,1,-186.305,-98.5309,3.86499,-186.305,-1.69213
block_1,10676,9,14927,1,-171.808,-89.984,5.24142,-171.808,-1.66476
block_1,10677,9,14928,1,-171.159,-88.778,5.25918,-171.159,-1.66478
block_1,10678,9,14929,1,-185.606,-97.2327,3.87812,-185.606,-1.69214
block_1,10679,9,14930,1,-184.905,-95.9302,3.89125,-184.905,-1.69216
block_1,10680,9,14931,1,-200.912,-107.275,2.39362,-200.912,-1.711
block_1,10681,9,14932,1,-200.164,-105.885,2.40177,-200.164,-1.71101
block_1,10682,9,14933,1,-214.833,-114.736,0.831185,-214.833,-1.72076
block_1,10683,9,14934,1,-214.033,-113.25,0.834001,-214.033,-1.72076
block_1,10684,9,14935,1,-199.413,-104.491,2.40992,-199.413,-1.71102
block_1,10685,9,14936,1,-198.66,-103.092,2.41807,-198.66,-1.71103
block_1,10686,9,14937,1,-213.231,-111.76,0.836815,-213.231,-1.72077
block_1,10687,9,14938,1,-212.425,-110.264,0.839627,-212.425,-1.72078
block_1,10688,9,14939,1,-115.815,-59.4278,9.71101,-115.815,-1.48285
block_1,10689,9,14940,1,-115.371,-58.6022,9.74372,-115.371,-1.48289
block_1,10690,9,14941,1,-129.477,-66.452,8.76091,-129.477,-1.53795
block_1,10691,9,14942,1,-128.981,-65.5293,8.79041,-128.981,-1.53798
block_1,10692,9,14943,1,-114.925,-57.7739,9.77642,-114.925,-1.48293
block_1,10693,9,14944,1,-114.477,-56.9428,9.80912,-114.477,-1.48297
block_1,10694,9,14945,1,-128.482,-64.6035,8.8199,-128.482,-1.53801
block_1,10695,9,14946,1,-127.982,-63.6745,8.84939,-127.982,-1.53805
block_1,10696,9,14947,1,-143.146,-73.4829,7.70519,-143.146,-1.58706
block_1,10697,9,14948,1,-142.597,-72.4631,7.73113,-142.597,-1.58708
block_1,10698,9,14949,1,-156.823,-80.5213,6.54387,-156.823,-1.62955
block_1,10699,9,14950,1,-156.221,-79.4043,6.56589,-156.221,-1.62957
block_1,10700,9,14951,1,-142.046,-71.4398,7.75706,-142.046,-1.58711
block_1,10701,9,14952,1,-141.493,-70.413,7.78299,-141.493,-1.58714
block_1,10702,9,14953,1,-155.618,-78.2835,6.5879,-155.618,-1.62959
block_1,10703,9,14954,1,-155.012,-77.1589,6.60991,-155.012,-1.62962
block_1,10704,9,14955,1,-114.028,-56.1089,9.84181,-114.028,-1.483
block_1,10705,9,14956,1,-113.578,-55.2722,9.8745,-113.578,-1.48304
block_1,10706,9,14957,1,-127.48,-62.7425,8.87887,-127.48,-1.53808
block_1,10707,9,14958,1,-126.977,-61.8073,8.90835,-126.977,-1.53811
block_1,10708,9,14959,1,-113.126,-54.4327,9.90719,-113.126,-1.48307
block_1,10709,9,14960,1,-112.672,-53.5904,9.93988,-112.672,-1.48309
block_1,10710,9,14961,1,-126.471,-60.8691,8.93783,-126.471,-1.53814
block_1,10711,9,14962,1,-125.964,-59.9277,8.9673,-125.964,-1.53816
block_1,10712,9,14963,1,-140.939,-69.3828,7.80891,-140.939,-1.58717
block_1,10713,9,14964,1,-140.382,-68.3492,7.83482,-140.382,-1.58719
block_1,10714,9,14965,1,-154.405,-76.0306,6.63191,-154.405,-1.62964
block_1,10715,9,14966,1,-153.795,-74.8986,6.65391,-153.795,-1.62966
block_1,10716,9,14967,1,-139.824,-67.3122,7.86074,-139.824,-1.58722
block_1,10717,9,14968,1,-139.264,-66.2717,7.88664,-139.264,-1.58724
block_1,10718,9,14969,1,-153.184,-73.7627,6.67591,-153.184,-1.62968
block_1,10719,9,14970,1,-152.57,-72.6231,6.6979,-152.57,-1.6297
block_1,10720,9,14971,1,-170.507,-87.5679,5.27693,-170.507,-1.6648
block_1,10721,9,14972,1,-169.854,-86.3537,5.29468,-169.854,-1.66481
block_1,10722,9,14973,1,-184.201,-94.6233,3.90438,-184.201,-1.69217
block_1,10723,9,14974,1,-183.495,-93.3119,3.9175,-183.495,-1.69218
block_1,10724,9,14975,1,-169.198,-85.1354,5.31242,-169.198,-1.66483
block_1,10725,9,14976,1,-168.539,-83.913,5.33016,-168.539,-1.66485
block_1,10726,9,14977,1,-182.786,-91.9961,3.93062,-182.786,-1.6922
block_1,10727,9,14978,1,-182.075,-90.676,3.94374,-182.075,-1.69221
block_1,10728,9,14979,1,-197.904,-101.688,2.42622,-197.904,-1.71104
block_1,10729,9,14980,1,-197.145,-100.28,2.43436,-197.145,-1.71105
block_1,10730,9,14981,1,-211.617,-108.763,0.842439,-211.617,-1.72079
block_1,10731,9,14982,1,-210.806,-107.258,0.845249,-210.806,-1.7208
block_1,10732,9,14983,1,-196.384,-98.8664,2.4425,-196.384,-1.71106
block_1,10733,9,14984,1,-195.621,-97.4484,2.45064,-195.621,-1.71108
block_1,10734,9,14985,1,-209.993,-105.747,0.848058,-209.993,-1.7208
block_1,10735,9,14986,1,-209.177,-104.231,0.850865,-209.177,-1.72081
block_1,10736,9,14987,1,-167.879,-82.6866,5.34789,-167.879,-1.66487
block_1,10737,9,14988,1,-167.216,-81.456,5.36562,-167.216,-1.66489
block_1,10738,9,14989,1,-181.362,-89.3514,3.95685,-181.362,-1.69223
block_1,10739,9,14990,1,-180.647,-88.0224,3.96995,-180.647,-1.69224
block_1,10740,9,14991,1,-166.552,-80.2214,5.38335,-166.552,-1.6649
block_1,10741,9,14992,1,-165.885,-78.9827,5.40107,-165.885,-1.66492
block_1,10742,9,14993,1,-179.929,-86.689,3.98305,-179.929,-1.69225
block_1,10743,9,14994,1,-179.208,-85.3512,3.99615,-179.208,-1.69227
block_1,10744,9,14995,1,-194.855,-96.0257,2.45877,-194.855,-1.71109
block_1,10745,9,14996,1,-194.086,-94.5983,2.4669,-194.086,-1.7111
block_1,10746,9,14997,1,-208.358,-102.71,0.853671,-208.358,-1.72082
block_1,10747,9,14998,1,-207.536,-101.184,0.856475,-207.536,-1.72083
block_1,10748,9,14999,1,-193.315,-93.1661,2.47503,-193.315,-1.71111
block_1,10749,9,15000,1,-192.541,-91.7292,2.48316,-192.541,-1.71112
block_1,10750,9,15001,1,-206.712,-99.6534,0.859278,-206.712,-1.72084
block_1,10751,9,15002,1,-205.885,-98.1174,0.862079,-205.885,-1.72085
block_1,10752,9,15003,1,-15.8699,-3.00143,13.8744,-6.46447,-0.902352
block_1,10753,9,15004,1,-15.8885,-2.95183,13.92,-6.43783,-0.902319
block_1,10754,9,15005,1,-20.7039,-9.2106,13.7663,-19.6749,-0.982696
block_1,10755,9,15006,1,-20.6414,-9.06121,13.8115,-19.5945,-0.982664
block_1,10756,9,15007,1,-15.907,-2.90206,13.9656,-6.41108,-0.902249
block_1,10757,9,15008,1,-15.9255,-2.85213,14.0112,-6.38423,-0.902132
block_1,10758,9,15009,1,-20.5787,-8.91132,13.8568,-19.5138,-0.982597
block_1,10759,9,15010,1,-20.516,-8.76093,13.902,-19.4329,-0.982483
block_1,10760,9,15011,1,-32.8863,-15.4209,13.5497,-32.8863,-1.06209
block_1,10761,9,15012,1,-32.7522,-15.1717,13.5942,-32.7522,-1.06206
block_1,10762,9,15013,1,-46.0995,-21.633,13.2247,-46.0995,-1.13989
block_1,10763,9,15014,1,-45.9117,-21.284,13.2681,-45.9117,-1.13987
block_1,10764,9,15015,1,-32.6176,-14.9217,13.6388,-32.6176,-1.06199
block_1,10765,9,15016,1,-32.4826,-14.6709,13.6833,-32.4826,-1.06189
block_1,10766,9,15017,1,-45.7232,-20.9339,13.3116,-45.7232,-1.13981
block_1,10767,9,15018,1,-45.5341,-20.5826,13.355,-45.5341,-1.13971
block_1,10768,9,15019,1,-15.9439,-2.80203,14.0568,-6.35728,-0.901955
block_1,10769,9,15020,1,-15.9623,-2.75176,14.1024,-6.33022,-0.901705
block_1,10770,9,15021,1,-20.4531,-8.61005,13.9472,-19.3517,-0.982311
block_1,10771,9,15022,1,-20.3902,-8.45868,13.9925,-19.2702,-0.982067
block_1,10772,9,15023,1,-15.9806,-2.70135,14.148,-6.30306,-0.901364
block_1,10773,9,15024,1,-15.9988,-2.65079,14.1936,-6.27578,-0.900913
block_1,10774,9,15025,1,-20.3271,-8.30683,14.0378,-19.1884,-0.981733
block_1,10775,9,15026,1,-20.264,-8.15451,14.083,-19.1063,-0.981292
block_1,10776,9,15027,1,-32.3471,-14.4192,13.7278,-32.3471,-1.06172
block_1,10777,9,15028,1,-32.2112,-14.1667,13.7723,-32.2112,-1.06149
block_1,10778,9,15029,1,-45.3443,-20.2302,13.3985,-45.3443,-1.13956
block_1,10779,9,15030,1,-45.154,-19.8766,13.4419,-45.154,-1.13935
block_1,10780,9,15031,1,-32.0748,-13.9134,13.8169,-32.0748,-1.06117
block_1,10781,9,15032,1,-31.9379,-13.6593,13.8615,-31.9379,-1.06075
block_1,10782,9,15033,1,-44.963,-19.5219,13.4854,-44.963,-1.13905
block_1,10783,9,15034,1,-44.7713,-19.166,13.529,-44.7713,-1.13865
block_1,10784,9,15035,1,-59.3152,-27.8476,12.7912,-59.3152,-1.21548
block_1,10785,9,15036,1,-59.0737,-27.3988,12.8332,-59.0737,-1.21547
block_1,10786,9,15037,1,-72.5341,-34.0654,12.2492,-72.5341,-1.28823
block_1,10787,9,15038,1,-72.2388,-33.5169,12.2894,-72.2388,-1.28822
block_1,10788,9,15039,1,-58.8313,-26.9486,12.8752,-58.8313,-1.21542
block_1,10789,9,15040,1,-58.5881,-26.4969,12.9172,-58.5881,-1.21533
block_1,10790,9,15041,1,-71.9425,-32.9665,12.3296,-71.9425,-1.28818
block_1,10791,9,15042,1,-71.6453,-32.4144,12.3698,-71.6453,-1.28811
block_1,10792,9,15043,1,-85.757,-40.2872,11.5988,-85.757,-1.35751
block_1,10793,9,15044,1,-85.4079,-39.6389,11.6368,-85.4079,-1.3575
block_1,10794,9,15045,1,-98.9844,-46.5136,10.8399,-98.9844,-1.42267
block_1,10795,9,15046,1,-98.5816,-45.7655,10.8754,-98.5816,-1.42267
block_1,10796,9,15047,1,-85.0577,-38.9884,11.6749,-85.0577,-1.35747
block_1,10797,9,15048,1,-84.7064,-38.3358,11.713,-84.7064,-1.35741
block_1,10798,9,15049,1,-98.1775,-45.015,10.911,-98.1775,-1.42265
block_1,10799,9,15050,1,-97.7721,-44.262,10.9466,-97.7721,-1.42261
block_1,10800,9,15051,1,-58.3441,-26.0437,12.9592,-58.3441,-1.2152
block_1,10801,9,15052,1,-58.0993,-25.589,13.0013,-58.0993,-1.215
block_1,10802,9,15053,1,-71.347,-31.8604,12.4101,-71.347,-1.28799
block_1,10803,9,15054,1,-71.0478,-31.3046,12.4504,-71.0478,-1.28782
block_1,10804,9,15055,1,-57.8536,-25.1328,13.0434,-57.8536,-1.21473
block_1,10805,9,15056,1,-57.6072,-24.6752,13.0855,-57.6072,-1.21437
block_1,10806,9,15057,1,-70.7475,-30.7471,12.4907,-70.7475,-1.28758
block_1,10807,9,15058,1,-70.4463,-30.1877,12.531,-70.4463,-1.28726
block_1,10808,9,15059,1,-84.3538,-37.6811,11.7511,-84.3538,-1.35731
block_1,10809,9,15060,1,-84.0002,-37.0243,11.7892,-84.0002,-1.35716
block_1,10810,9,15061,1,-97.3653,-43.5065,10.9822,-97.3653,-1.42253
block_1,10811,9,15062,1,-96.9572,-42.7485,11.0178,-96.9572,-1.42241
block_1,10812,9,15063,1,-83.6453,-36.3652,11.8273,-83.6453,-1.35696
block_1,10813,9,15064,1,-83.2893,-35.7041,11.8655,-83.2893,-1.35668
block_1,10814,9,15065,1,-96.5478,-41.9881,11.0534,-96.5478,-1.42224
block_1,10815,9,15066,1,-96.137,-41.2252,11.0891,-96.137,-1.42201
block_1,10816,9,15067,1,-16.017,-2.6001,14.2392,-6.2484,-0.900328
block_1,10817,9,15068,1,-16.0351,-2.5493,14.2848,-6.22089,-0.899584
block_1,10818,9,15069,1,-20.2007,-8.00172,14.1283,-19.024,-0.98072
block_1,10819,9,15070,1,-20.1374,-7.84849,14.1737,-18.9413,-0.979991
block_1,10820,9,15071,1,-16.0532,-2.4984,14.3305,-6.19327,-0.89865
block_1,10821,9,15072,1,-16.0712,-2.44743,14.3761,-6.16553,-0.897492
block_1,10822,9,15073,1,-20.0739,-7.69483,14.219,-18.8584,-0.979075
block_1,10823,9,15074,1,-20.0104,-7.54077,14.2644,-18.7751,-0.977939
block_1,10824,9,15075,1,-31.8006,-13.4045,13.9061,-31.8006,-1.0602
block_1,10825,9,15076,1,-31.6628,-13.1488,13.9508,-31.6628,-1.0595
block_1,10826,9,15077,1,-44.579,-18.809,13.5725,-44.579,-1.13814
block_1,10827,9,15078,1,-44.3861,-18.4509,13.6162,-44.3861,-1.13748
block_1,10828,9,15079,1,-31.5245,-12.8924,13.9955,-31.5245,-1.05862
block_1,10829,9,15080,1,-31.3858,-12.6352,14.0402,-31.3858,-1.05753
block_1,10830,9,15081,1,-44.1925,-18.0917,13.6598,-44.1925,-1.13666
block_1,10831,9,15082,1,-43.9983,-17.7315,13.7036,-43.9983,-1.13563
block_1,10832,9,15083,1,-16.0891,-2.39641,14.4218,-6.13767,-0.896071
block_1,10833,9,15084,1,-16.1069,-2.34537,14.4675,-6.10968,-0.894343
block_1,10834,9,15085,1,-19.9467,-7.38633,14.3098,-18.6916,-0.976545
block_1,10835,9,15086,1,-19.883,-7.23154,14.3553,-18.6077,-0.97485
block_1,10836,9,15087,1,-16.1247,-2.29437,14.5132,-6.08156,-0.89226
block_1,10837,9,15088,1,-16.1423,-2.24345,14.5589,-6.05333,-0.889768
block_1,10838,9,15089,1,-19.8191,-7.07645,14.4008,-18.5236,-0.972805
block_1,10839,9,15090,1,-19.7552,-6.92109,14.4464,-18.4392,-0.970359
block_1,10840,9,15091,1,-31.2466,-12.3773,14.085,-31.2466,-1.05619
block_1,10841,9,15092,1,-31.1069,-12.1188,14.1299,-31.1069,-1.05456
block_1,10842,9,15093,1,-43.8034,-17.3701,13.7474,-43.8034,-1.13436
block_1,10843,9,15094,1,-43.6079,-17.0077,13.7914,-43.6079,-1.13282
block_1,10844,9,15095,1,-30.9667,-11.8595,14.1749,-30.9667,-1.05259
block_1,10845,9,15096,1,-30.8261,-11.5997,14.22,-30.8261,-1.05023
block_1,10846,9,15097,1,-43.4117,-16.6444,13.8355,-43.4117,-1.13096
block_1,10847,9,15098,1,-43.2148,-16.28,13.8797,-43.2148,-1.12874
block_1,10848,9,15099,1,-57.36,-24.2161,13.1276,-57.36,-1.2139
block_1,10849,9,15100,1,-57.1119,-23.7556,13.1699,-57.1119,-1.21329
block_1,10850,9,15101,1,-70.1441,-29.6265,12.5714,-70.1441,-1.28684
block_1,10851,9,15102,1,-69.8409,-29.0635,12.6119,-69.8409,-1.2863
block_1,10852,9,15103,1,-56.863,-23.2936,13.2122,-56.863,-1.21253
block_1,10853,9,15104,1,-56.6133,-22.8302,13.2545,-56.6133,-1.21159
block_1,10854,9,15105,1,-69.5367,-28.4988,12.6524,-69.5367,-1.28561
block_1,10855,9,15106,1,-69.2315,-27.9323,12.693,-69.2315,-1.28476
block_1,10856,9,15107,1,-82.9322,-35.0408,11.9038,-82.9322,-1.35632
block_1,10857,9,15108,1,-82.5738,-34.3754,11.9421,-82.5738,-1.35585
block_1,10858,9,15109,1,-95.7249,-40.4599,11.1249,-95.7249,-1.4217
block_1,10859,9,15110,1,-95.3114,-39.6921,11.1607,-95.3114,-1.42131
block_1,10860,9,15111,1,-82.2143,-33.7079,11.9806,-82.2143,-1.35525
block_1,10861,9,15112,1,-81.8536,-33.0383,12.0191,-81.8536,-1.35451
block_1,10862,9,15113,1,-94.8966,-38.9218,11.1967,-94.8966,-1.4208
block_1,10863,9,15114,1,-94.4804,-38.149,11.2327,-94.4804,-1.42017
block_1,10864,9,15115,1,-56.3627,-22.3654,13.297,-56.3627,-1.21042
block_1,10865,9,15116,1,-56.1113,-21.8992,13.3397,-56.1113,-1.209
block_1,10866,9,15117,1,-68.9253,-27.364,12.7338,-68.9253,-1.28371
block_1,10867,9,15118,1,-68.618,-26.794,12.7748,-68.618,-1.28243
block_1,10868,9,15119,1,-55.8591,-21.4317,13.3825,-55.8591,-1.20728
block_1,10869,9,15120,1,-55.6061,-20.9628,13.4254,-55.6061,-1.20522
block_1,10870,9,15121,1,-68.3098,-26.2222,12.8159,-68.3098,-1.28088
block_1,10871,9,15122,1,-68.0005,-25.6488,12.8572,-68.0005,-1.27902
block_1,10872,9,15123,1,-81.4917,-32.3665,12.0578,-81.4917,-1.35359
block_1,10873,9,15124,1,-81.1287,-31.6927,12.0966,-81.1287,-1.35246
block_1,10874,9,15125,1,-94.0629,-37.3738,11.2689,-94.0629,-1.41939
block_1,10875,9,15126,1,-93.644,-36.5961,11.3052,-93.644,-1.41843
block_1,10876,9,15127,1,-80.7644,-31.0168,12.1356,-80.7644,-1.35109
block_1,10877,9,15128,1,-80.399,-30.3388,12.1749,-80.399,-1.34945
block_1,10878,9,15129,1,-93.2237,-35.816,11.3418,-93.2237,-1.41726
block_1,10879,9,15130,1,-92.802,-35.0335,11.3786,-92.802,-1.41586
block_1,10880,9,15131,1,-112.217,-52.7454,9.97256,-112.217,-1.48311
block_1,10881,9,15132,1,-111.761,-51.8975,10.0053,-111.761,-1.48311
block_1,10882,9,15133,1,-125.456,-58.9832,8.99678,-125.456,-1.53818
block_1,10883,9,15134,1,-124.946,-58.0356,9.02626,-124.946,-1.53819
block_1,10884,9,15135,1,-111.303,-51.0469,10.038,-111.303,-1.4831
block_1,10885,9,15136,1,-110.843,-50.1935,10.0707,-110.843,-1.48307
block_1,10886,9,15137,1,-124.434,-57.0848,9.05574,-124.434,-1.53818
block_1,10887,9,15138,1,-123.92,-56.131,9.08523,-123.92,-1.53816
block_1,10888,9,15139,1,-138.701,-65.2278,7.91255,-138.701,-1.58726
block_1,10889,9,15140,1,-138.137,-64.1804,7.93846,-138.137,-1.58727
block_1,10890,9,15141,1,-151.954,-71.4798,6.71989,-151.954,-1.62972
block_1,10891,9,15142,1,-151.337,-70.3326,6.74187,-151.337,-1.62973
block_1,10892,9,15143,1,-137.572,-63.1296,7.96437,-137.572,-1.58727
block_1,10893,9,15144,1,-137.004,-62.0753,7.9903,-137.004,-1.58726
block_1,10894,9,15145,1,-150.717,-69.1818,6.76387,-150.717,-1.62974
block_1,10895,9,15146,1,-150.095,-68.0271,6.78586,-150.095,-1.62974
block_1,10896,9,15147,1,-110.382,-49.3372,10.1034,-110.382,-1.48301
block_1,10897,9,15148,1,-109.92,-48.4782,10.1361,-109.92,-1.48292
block_1,10898,9,15149,1,-123.405,-55.174,9.11474,-123.405,-1.53812
block_1,10899,9,15150,1,-122.888,-54.2139,9.14427,-122.888,-1.53805
block_1,10900,9,15151,1,-109.456,-47.6164,10.1689,-109.456,-1.48278
block_1,10901,9,15152,1,-108.99,-46.7517,10.2018,-108.99,-1.4826
block_1,10902,9,15153,1,-122.369,-53.2507,9.17384,-122.369,-1.53795
block_1,10903,9,15154,1,-121.849,-52.2844,9.20344,-121.849,-1.53781
block_1,10904,9,15155,1,-136.434,-61.0176,8.01623,-136.434,-1.58724
block_1,10905,9,15156,1,-135.863,-59.9565,8.04219,-135.863,-1.58719
block_1,10906,9,15157,1,-149.471,-66.8687,6.80787,-149.471,-1.62972
block_1,10907,9,15158,1,-148.846,-65.7065,6.82989,-148.846,-1.6297
block_1,10908,9,15159,1,-135.29,-58.8919,8.06817,-135.29,-1.58712
block_1,10909,9,15160,1,-134.715,-57.8238,8.09419,-134.715,-1.58702
block_1,10910,9,15161,1,-148.218,-64.5405,6.85194,-148.218,-1.62966
block_1,10911,9,15162,1,-147.588,-63.3708,6.87402,-147.588,-1.62959
block_1,10912,9,15163,1,-165.215,-77.7399,5.41878,-165.215,-1.66494
block_1,10913,9,15164,1,-164.544,-76.4931,5.4365,-164.544,-1.66495
block_1,10914,9,15165,1,-178.485,-84.009,4.00925,-178.485,-1.69228
block_1,10915,9,15166,1,-177.76,-82.6624,4.02234,-177.76,-1.69229
block_1,10916,9,15167,1,-163.87,-75.2421,5.45422,-163.87,-1.66496
block_1,10917,9,15168,1,-163.195,-73.9871,5.47194,-163.195,-1.66496
block_1,10918,9,15169,1,-177.033,-81.3113,4.03543,-177.033,-1.6923
block_1,10919,9,15170,1,-176.303,-79.9559,4.04853,-176.303,-1.69231
block_1,10920,9,15171,1,-191.765,-90.2875,2.49128,-191.765,-1.71113
block_1,10921,9,15172,1,-190.986,-88.8412,2.4994,-190.986,-1.71114
block_1,10922,9,15173,1,-205.055,-96.5764,0.864879,-205.055,-1.72085
block_1,10923,9,15174,1,-204.222,-95.0303,0.867678,-204.222,-1.72086
block_1,10924,9,15175,1,-190.205,-87.3901,2.50752,-190.205,-1.71115
block_1,10925,9,15176,1,-189.421,-85.9343,2.51564,-189.421,-1.71115
block_1,10926,9,15177,1,-203.387,-93.4791,0.870475,-203.387,-1.72087
block_1,10927,9,15178,1,-202.549,-91.923,0.873272,-202.549,-1.72088
block_1,10928,9,15179,1,-162.517,-72.7279,5.48967,-162.517,-1.66496
block_1,10929,9,15180,1,-161.836,-71.4647,5.5074,-161.836,-1.66495
block_1,10930,9,15181,1,-175.571,-78.5961,4.06163,-175.571,-1.69231
block_1,10931,9,15182,1,-174.836,-77.2318,4.07473,-174.836,-1.69231
block_1,10932,9,15183,1,-161.154,-70.1974,5.52516,-161.154,-1.66493
block_1,10933,9,15184,1,-160.469,-68.926,5.54294,-160.469,-1.66489
block_1,10934,9,15185,1,-174.099,-75.8632,4.08785,-174.099,-1.6923
block_1,10935,9,15186,1,-173.36,-74.4901,4.10098,-173.36,-1.69229
block_1,10936,9,15187,1,-188.634,-84.4738,2.52376,-188.634,-1.71116
block_1,10937,9,15188,1,-187.845,-83.0085,2.53188,-187.845,-1.71117
block_1,10938,9,15189,1,-201.708,-90.3617,0.876069,-201.708,-1.72089
block_1,10939,9,15190,1,-200.865,-88.7955,0.878867,-200.865,-1.72089
block_1,10940,9,15191,1,-187.054,-81.5385,2.54001,-187.054,-1.71117
block_1,10941,9,15192,1,-186.259,-80.0638,2.54815,-186.259,-1.71117
block_1,10942,9,15193,1,-200.019,-87.2241,0.881665,-200.019,-1.7209
block_1,10943,9,15194,1,-199.17,-85.6478,0.884467,-199.17,-1.72091
block_1,10944,9,15195,1,-108.523,-45.8843,10.2347,-108.523,-1.48235
block_1,10945,9,15196,1,-108.054,-45.0141,10.2676,-108.054,-1.48203
block_1,10946,9,15197,1,-121.327,-51.3149,9.23311,-121.327,-1.53763
block_1,10947,9,15198,1,-120.803,-50.3423,9.26284,-120.803,-1.53738
block_1,10948,9,15199,1,-107.584,-44.141,10.3007,-107.584,-1.48162
block_1,10949,9,15200,1,-107.113,-43.2652,10.3339,-107.113,-1.4811
block_1,10950,9,15201,1,-120.278,-49.3665,9.29266,-120.278,-1.53706
block_1,10951,9,15202,1,-119.751,-48.3876,9.3226,-119.751,-1.53666
block_1,10952,9,15203,1,-134.138,-56.7523,8.12026,-134.138,-1.58689
block_1,10953,9,15204,1,-133.559,-55.6773,8.1464,-133.559,-1.58671
block_1,10954,9,15205,1,-146.956,-62.1972,6.89614,-146.956,-1.6295
block_1,10955,9,15206,1,-146.322,-61.0199,6.91832,-146.322,-1.62938
block_1,10956,9,15207,1,-132.978,-54.5988,8.17261,-132.978,-1.58647
block_1,10957,9,15208,1,-132.396,-53.5168,8.19893,-132.396,-1.58618
block_1,10958,9,15209,1,-145.686,-59.8387,6.94056,-145.686,-1.62923
block_1,10959,9,15210,1,-145.048,-58.6537,6.9629,-145.048,-1.62902
block_1,10960,9,15211,1,-106.639,-42.3865,10.3672,-106.639,-1.48046
block_1,10961,9,15212,1,-106.165,-41.5051,10.4007,-106.165,-1.47967
block_1,10962,9,15213,1,-119.222,-47.4055,9.35267,-119.222,-1.53615
block_1,10963,9,15214,1,-118.691,-46.4202,9.38291,-118.691,-1.53553
block_1,10964,9,15215,1,-105.688,-40.6208,10.4344,-105.688,-1.47871
block_1,10965,9,15216,1,-105.21,-39.7336,10.4683,-105.21,-1.47755
block_1,10966,9,15217,1,-118.159,-45.4317,9.41335,-118.159,-1.53477
block_1,10967,9,15218,1,-117.625,-44.4401,9.44404,-117.625,-1.53385
block_1,10968,9,15219,1,-131.811,-52.4313,8.22538,-131.811,-1.5858
block_1,10969,9,15220,1,-131.225,-51.3423,8.25198,-131.225,-1.58534
block_1,10970,9,15221,1,-144.408,-57.4648,6.98535,-144.408,-1.62877
block_1,10971,9,15222,1,-143.766,-56.2721,7.00793,-143.766,-1.62845
block_1,10972,9,15223,1,-130.637,-50.2497,8.27877,-130.637,-1.58477
block_1,10973,9,15224,1,-130.046,-49.1536,8.30579,-130.046,-1.58409
block_1,10974,9,15225,1,-143.122,-55.0755,7.03068,-143.122,-1.62806
block_1,10975,9,15226,1,-142.475,-53.8749,7.05363,-142.475,-1.62758
block_1,10976,9,15227,1,-159.783,-67.6504,5.56076,-159.783,-1.66484
block_1,10977,9,15228,1,-159.093,-66.3707,5.57862,-159.093,-1.66477
block_1,10978,9,15229,1,-172.618,-73.1125,4.11414,-172.618,-1.69227
block_1,10979,9,15230,1,-171.874,-71.7305,4.12733,-171.874,-1.69224
block_1,10980,9,15231,1,-158.402,-65.0869,5.59653,-158.402,-1.66468
block_1,10981,9,15232,1,-157.709,-63.7989,5.61452,-157.709,-1.66456
block_1,10982,9,15233,1,-171.127,-70.3441,4.14056,-171.127,-1.69219
block_1,10983,9,15234,1,-170.378,-68.9531,4.15384,-170.378,-1.69214
block_1,10984,9,15235,1,-185.463,-78.5843,2.5563,-185.463,-1.71117
block_1,10985,9,15236,1,-184.664,-77.1,2.56447,-184.664,-1.71116
block_1,10986,9,15237,1,-198.318,-84.0663,0.887272,-198.318,-1.72092
block_1,10987,9,15238,1,-197.464,-82.4798,0.890082,-197.464,-1.72092
block_1,10988,9,15239,1,-183.862,-75.611,2.57267,-183.862,-1.71115
block_1,10989,9,15240,1,-183.057,-74.1171,2.58089,-183.057,-1.71113
block_1,10990,9,15241,1,-196.606,-80.8882,0.892901,-196.606,-1.72093
block_1,10991,9,15242,1,-195.747,-79.2915,0.895729,-195.747,-1.72093
block_1,10992,9,15243,1,-157.013,-62.5067,5.6326,-157.013,-1.6644
block_1,10993,9,15244,1,-156.315,-61.2103,5.65079,-156.315,-1.6642
block_1,10994,9,15245,1,-169.627,-67.5577,4.16719,-169.627,-1.69206
block_1,10995,9,15246,1,-168.873,-66.1577,4.18062,-168.873,-1.69196
block_1,10996,9,15247,1,-155.615,-59.9097,5.66912,-155.615,-1.66396
block_1,10997,9,15248,1,-154.912,-58.6047,5.68761,-154.912,-1.66366
block_1,10998,9,15249,1,-168.117,-64.7531,4.19416,-168.117,-1.69183
block_1,10999,9,15250,1,-167.358,-63.3439,4.20781,-167.358,-1.69168
block_1,11000,9,15251,1,-182.25,-72.6184,2.58916,-182.25,-1.71111
block_1,11001,9,15252,1,-181.441,-71.1149,2.59748,-181.441,-1.71108
block_1,11002,9,15253,1,-194.884,-77.6897,0.89857,-194.884,-1.72093
block_1,11003,9,15254,1,-194.019,-76.0827,0.901428,-194.019,-1.72093
block_1,11004,9,15255,1,-180.629,-69.6064,2.60586,-180.629,-1.71103
block_1,11005,9,15256,1,-179.814,-68.093,2.61432,-179.814,-1.71098
block_1,11006,9,15257,1,-193.151,-74.4704,0.904306,-193.151,-1.72093
block_1,11007,9,15258,1,-192.28,-72.8529,0.907211,-192.28,-1.72093
block_1,11008,9,15259,1,-16.1599,-2.19265,14.6046,-6.02496,-0.886809
block_1,11009,9,15260,1,-16.1775,-2.14206,14.6504,-5.99647,-0.883319
block_1,11010,9,15261,1,-19.6912,-6.76553,14.4921,-18.3544,-0.967454
block_1,11011,9,15262,1,-19.6272,-6.60983,14.5379,-18.2694,-0.964028
block_1,11012,9,15263,1,-16.195,-2.09174,14.6962,-5.96787,-0.879229
block_1,11013,9,15264,1,-16.2124,-2.04179,14.7421,-5.93915,-0.87447
block_1,11014,9,15265,1,-19.5631,-6.45406,14.5838,-18.184,-0.960014
block_1,11015,9,15266,1,-19.4989,-6.29831,14.6298,-18.0984,-0.955342
block_1,11016,9,15267,1,-30.6849,-11.3393,14.2653,-30.6849,-1.04743
block_1,11017,9,15268,1,-30.5433,-11.0785,14.3107,-30.5433,-1.04413
block_1,11018,9,15269,1,-43.0173,-15.9148,13.9241,-43.0173,-1.12609
block_1,11019,9,15270,1,-42.8191,-15.5487,13.9688,-42.8191,-1.12297
block_1,11020,9,15271,1,-30.4012,-10.8172,14.3563,-30.4012,-1.04026
block_1,11021,9,15272,1,-30.2587,-10.5555,14.402,-30.2587,-1.03576
block_1,11022,9,15273,1,-42.6203,-15.1818,14.0136,-42.6203,-1.11931
block_1,11023,9,15274,1,-42.4208,-14.8141,14.0588,-42.4208,-1.11505
block_1,11024,9,15275,1,-16.2299,-1.99232,14.788,-5.91033,-0.868966
block_1,11025,9,15276,1,-16.2474,-1.94342,14.834,-5.88142,-0.862642
block_1,11026,9,15277,1,-19.4348,-6.14268,14.676,-18.0125,-0.94994
block_1,11027,9,15278,1,-19.3707,-5.98728,14.7223,-17.9263,-0.943735
block_1,11028,9,15279,1,-16.2649,-1.89525,14.8801,-5.85243,-0.855424
block_1,11029,9,15280,1,-16.2826,-1.84795,14.9263,-5.8234,-0.847241
block_1,11030,9,15281,1,-19.3066,-5.83224,14.7689,-17.8398,-0.936654
block_1,11031,9,15282,1,-19.2427,-5.67771,14.8157,-17.7532,-0.92863
block_1,11032,9,15283,1,-30.1157,-10.2936,14.4481,-30.1157,-1.03055
block_1,11033,9,15284,1,-29.9722,-10.0316,14.4944,-29.9722,-1.02456
block_1,11034,9,15285,1,-42.2207,-14.4458,14.1043,-42.2207,-1.11012
block_1,11035,9,15286,1,-42.0199,-14.077,14.1502,-42.0199,-1.10445
block_1,11036,9,15287,1,-29.8283,-9.76947,14.5411,-29.8283,-1.01774
block_1,11037,9,15288,1,-29.6839,-9.5075,14.5881,-29.6839,-1.01
block_1,11038,9,15289,1,-41.8185,-13.7077,14.1965,-41.8185,-1.09799
block_1,11039,9,15290,1,-41.6165,-13.3381,14.2433,-41.6165,-1.09067
block_1,11040,9,15291,1,-55.3522,-20.4927,13.4686,-55.3522,-1.20277
block_1,11041,9,15292,1,-55.0974,-20.0213,13.5121,-55.0974,-1.19988
block_1,11042,9,15293,1,-67.6903,-25.0737,12.8988,-67.6903,-1.2768
block_1,11043,9,15294,1,-67.379,-24.497,12.9406,-67.379,-1.27418
block_1,11044,9,15295,1,-54.8418,-19.5487,13.5559,-54.8418,-1.19649
block_1,11045,9,15296,1,-54.5854,-19.075,13.6,-54.5854,-1.19253
block_1,11046,9,15297,1,-67.0666,-23.9187,12.9829,-67.0666,-1.2711
block_1,11047,9,15298,1,-66.7533,-23.3388,13.0255,-66.7533,-1.26751
block_1,11048,9,15299,1,-80.0323,-29.6587,12.2145,-80.0323,-1.3475
block_1,11049,9,15300,1,-79.6644,-28.9767,12.2543,-79.6644,-1.34518
block_1,11050,9,15301,1,-92.379,-34.2485,11.4157,-92.379,-1.41418
block_1,11051,9,15302,1,-91.9546,-33.461,11.4532,-91.9546,-1.41219
block_1,11052,9,15303,1,-79.2954,-28.2926,12.2946,-79.2954,-1.34246
block_1,11053,9,15304,1,-78.9251,-27.6066,12.3353,-78.9251,-1.33928
block_1,11054,9,15305,1,-91.5288,-32.6712,11.491,-91.5288,-1.40985
block_1,11055,9,15306,1,-91.1015,-31.879,11.5294,-91.1015,-1.40712
block_1,11056,9,15307,1,-54.3282,-18.6002,13.6445,-54.3282,-1.18796
block_1,11057,9,15308,1,-54.0701,-18.1245,13.6895,-54.0701,-1.1827
block_1,11058,9,15309,1,-66.4389,-22.7575,13.0686,-66.4389,-1.26336
block_1,11059,9,15310,1,-66.1235,-22.1748,13.1122,-66.1235,-1.25858
block_1,11060,9,15311,1,-53.8112,-17.6478,13.735,-53.8112,-1.1767
block_1,11061,9,15312,1,-53.5515,-17.1704,13.7811,-53.5515,-1.16989
block_1,11062,9,15313,1,-65.8071,-21.5907,13.1565,-65.8071,-1.25312
block_1,11063,9,15314,1,-65.4896,-21.0053,13.2014,-65.4896,-1.24693
block_1,11064,9,15315,1,-78.5536,-26.9186,12.3765,-78.5536,-1.3356
block_1,11065,9,15316,1,-78.1808,-26.2288,12.4183,-78.1808,-1.33136
block_1,11066,9,15317,1,-90.6729,-31.0844,11.5683,-90.6729,-1.40394
block_1,11067,9,15318,1,-90.2429,-30.2874,11.6077,-90.2429,-1.40029
block_1,11068,9,15319,1,-77.8069,-25.5371,12.4608,-77.8069,-1.32651
block_1,11069,9,15320,1,-77.4318,-24.8437,12.5041,-77.4318,-1.32101
block_1,11070,9,15321,1,-89.8114,-29.4881,11.6479,-89.8114,-1.3961
block_1,11071,9,15322,1,-89.3785,-28.6866,11.689,-89.3785,-1.39134
block_1,11072,9,15323,1,-16.3004,-1.80169,14.9726,-5.79435,-0.838029
block_1,11073,9,15324,1,-16.3185,-1.75664,15.019,-5.76531,-0.827739
block_1,11074,9,15325,1,-19.1789,-5.52384,14.8627,-17.6663,-0.919603
block_1,11075,9,15326,1,-19.1154,-5.37081,14.9101,-17.5793,-0.909525
block_1,11076,9,15327,1,-16.337,-1.71303,15.0655,-5.73635,-0.816337
block_1,11077,9,15328,1,-16.356,-1.67106,15.1123,-5.70751,-0.803814
block_1,11078,9,15329,1,-19.0523,-5.21882,14.9578,-17.4921,-0.898366
block_1,11079,9,15330,1,-18.9895,-5.06808,15.0059,-17.4049,-0.886124
block_1,11080,9,15331,1,-29.5392,-9.24578,14.6355,-29.5392,-1.0013
block_1,11081,9,15332,1,-29.3942,-8.98448,14.6834,-29.3942,-0.991596
block_1,11082,9,15333,1,-41.4139,-12.9683,14.2906,-41.4139,-1.08243
block_1,11083,9,15334,1,-41.2107,-12.5985,14.3386,-41.2107,-1.07324
block_1,11084,9,15335,1,-29.2488,-8.72379,14.7318,-29.2488,-0.980853
block_1,11085,9,15336,1,-29.1031,-8.46389,14.7808,-29.1031,-0.969076
block_1,11086,9,15337,1,-41.0071,-12.2288,14.3872,-41.0071,-1.06307
block_1,11087,9,15338,1,-40.8029,-11.8594,14.4366,-40.8029,-1.05193
block_1,11088,9,15339,1,-16.3758,-1.63097,15.1593,-5.67886,-0.790197
block_1,11089,9,15340,1,-16.3964,-1.59302,15.2065,-5.6505,-0.775557
block_1,11090,9,15341,1,-18.9273,-4.91881,15.0545,-17.3177,-0.87283
block_1,11091,9,15342,1,-18.8659,-4.77125,15.1035,-17.2306,-0.858562
block_1,11092,9,15343,1,-16.4181,-1.55747,15.2541,-5.62253,-0.760024
block_1,11093,9,15344,1,-16.4413,-1.52458,15.3021,-5.59507,-0.743802
block_1,11094,9,15345,1,-18.8053,-4.62564,15.1531,-17.1436,-0.843454
block_1,11095,9,15346,1,-18.7458,-4.48223,15.2034,-17.057,-0.82772
block_1,11096,9,15347,1,-28.9573,-8.205,14.8305,-28.9573,-0.956299
block_1,11097,9,15348,1,-28.8113,-7.94733,14.8808,-28.8113,-0.942602
block_1,11098,9,15349,1,-40.5984,-11.4904,14.4869,-40.5984,-1.03984
block_1,11099,9,15350,1,-40.3935,-11.1222,14.538,-40.3935,-1.0269
block_1,11100,9,15351,1,-28.6654,-7.6911,14.932,-28.6654,-0.928124
block_1,11101,9,15352,1,-28.5195,-7.43655,14.9839,-28.5195,-0.913079
block_1,11102,9,15353,1,-40.1884,-10.7548,14.5901,-40.1884,-1.01324
block_1,11103,9,15354,1,-39.9832,-10.3886,14.6432,-39.9832,-0.999065
block_1,11104,9,15355,1,-53.291,-16.6924,13.8279,-53.291,-1.16224
block_1,11105,9,15356,1,-53.0297,-16.2137,13.8754,-53.0297,-1.15369
block_1,11106,9,15357,1,-65.1712,-20.4188,13.2471,-65.1712,-1.23996
block_1,11107,9,15358,1,-64.8518,-19.8312,13.2937,-64.8518,-1.23218
block_1,11108,9,15359,1,-52.7677,-15.7347,13.9238,-52.7677,-1.14424
block_1,11109,9,15360,1,-52.5051,-15.2555,13.973,-52.5051,-1.13389
block_1,11110,9,15361,1,-64.5315,-19.2427,13.3412,-64.5315,-1.22358
block_1,11111,9,15362,1,-64.2103,-18.6533,13.3897,-64.2103,-1.21414
block_1,11112,9,15363,1,-77.0554,-24.1486,12.5481,-77.0554,-1.31482
block_1,11113,9,15364,1,-76.6779,-23.4519,12.5932,-76.6779,-1.30789
block_1,11114,9,15365,1,-88.9442,-27.8828,11.7309,-88.9442,-1.38598
block_1,11115,9,15366,1,-88.5085,-27.0768,11.7738,-88.5085,-1.37998
block_1,11116,9,15367,1,-76.2992,-22.7536,12.6392,-76.2992,-1.30023
block_1,11117,9,15368,1,-75.9193,-22.0539,12.6864,-75.9193,-1.29182
block_1,11118,9,15369,1,-88.0714,-26.2686,11.8178,-88.0714,-1.37333
block_1,11119,9,15370,1,-87.633,-25.4584,11.863,-87.633,-1.36603
block_1,11120,9,15371,1,-52.2418,-14.7762,14.0233,-52.2418,-1.12266
block_1,11121,9,15372,1,-51.9779,-14.2969,14.0746,-51.9779,-1.11064
block_1,11122,9,15373,1,-63.8882,-18.0632,13.4394,-63.8882,-1.20391
block_1,11123,9,15374,1,-63.5653,-17.4726,13.4903,-63.5653,-1.19295
block_1,11124,9,15375,1,-51.7136,-13.8179,14.1271,-51.7136,-1.09796
block_1,11125,9,15376,1,-51.4489,-13.3394,14.1807,-51.4489,-1.08481
block_1,11126,9,15377,1,-63.2416,-16.8816,13.5424,-63.2416,-1.18139
block_1,11127,9,15378,1,-62.9173,-16.2903,13.5959,-62.9173,-1.16941
block_1,11128,9,15379,1,-75.5384,-21.3528,12.7349,-75.5384,-1.28269
block_1,11129,9,15380,1,-75.1563,-20.6505,12.7846,-75.1563,-1.27292
block_1,11130,9,15381,1,-87.1931,-24.6461,11.9095,-87.1931,-1.3581
block_1,11131,9,15382,1,-86.7519,-23.8318,11.9574,-86.7519,-1.34959
block_1,11132,9,15383,1,-74.7733,-19.9471,12.8358,-74.7733,-1.2626
block_1,11133,9,15384,1,-74.3893,-19.2426,12.8884,-74.3893,-1.2519
block_1,11134,9,15385,1,-86.3095,-23.0157,12.0068,-86.3095,-1.3406
block_1,11135,9,15386,1,-85.8658,-22.1977,12.0577,-85.8658,-1.33127
block_1,11136,9,15387,1,-104.731,-38.8437,10.5026,-104.731,-1.47616
block_1,11137,9,15388,1,-104.25,-37.9509,10.5372,-104.25,-1.47451
block_1,11138,9,15389,1,-117.089,-43.4452,9.47502,-117.089,-1.53275
block_1,11139,9,15390,1,-116.552,-42.4471,9.50633,-116.552,-1.53144
block_1,11140,9,15391,1,-103.768,-37.0553,10.5722,-103.768,-1.47257
block_1,11141,9,15392,1,-103.283,-36.1569,10.6077,-103.283,-1.47029
block_1,11142,9,15393,1,-116.012,-41.4458,9.53806,-116.012,-1.52989
block_1,11143,9,15394,1,-115.471,-40.4412,9.57025,-115.471,-1.52807
block_1,11144,9,15395,1,-129.454,-48.0539,8.33308,-129.454,-1.58326
block_1,11145,9,15396,1,-128.86,-46.9505,8.36069,-128.86,-1.58227
block_1,11146,9,15397,1,-141.827,-52.6704,7.07682,-141.827,-1.627
block_1,11147,9,15398,1,-141.176,-51.4618,7.1003,-141.176,-1.62631
block_1,11148,9,15399,1,-128.264,-45.8435,8.38868,-128.264,-1.5811
block_1,11149,9,15400,1,-127.666,-44.7328,8.41711,-127.666,-1.57973
block_1,11150,9,15401,1,-140.523,-50.2492,7.12412,-140.523,-1.62549
block_1,11151,9,15402,1,-139.869,-49.0325,7.14833,-139.869,-1.62452
block_1,11152,9,15403,1,-102.798,-35.2556,10.6437,-102.798,-1.46765
block_1,11153,9,15404,1,-102.31,-34.3516,10.6804,-102.31,-1.46459
block_1,11154,9,15405,1,-114.929,-39.4333,9.60298,-114.929,-1.52596
block_1,11155,9,15406,1,-114.384,-38.4222,9.63635,-114.384,-1.52351
block_1,11156,9,15407,1,-101.821,-33.4447,10.7178,-101.821,-1.46109
block_1,11157,9,15408,1,-101.331,-32.5349,10.756,-101.331,-1.45711
block_1,11158,9,15409,1,-113.837,-37.4076,9.67042,-113.837,-1.5207
block_1,11159,9,15410,1,-113.289,-36.3898,9.70531,-113.289,-1.5175
block_1,11160,9,15411,1,-127.066,-43.6184,8.44605,-127.066,-1.57812
block_1,11161,9,15412,1,-126.464,-42.5001,8.47559,-126.464,-1.57626
block_1,11162,9,15413,1,-139.212,-47.8116,7.17301,-139.212,-1.62339
block_1,11163,9,15414,1,-138.552,-46.5864,7.19823,-138.552,-1.62207
block_1,11164,9,15415,1,-125.86,-41.3781,8.50581,-125.86,-1.57412
block_1,11165,9,15416,1,-125.254,-40.2521,8.5368,-125.254,-1.57168
block_1,11166,9,15417,1,-137.891,-45.3569,7.22405,-137.891,-1.62056
block_1,11167,9,15418,1,-137.227,-44.123,7.25058,-137.227,-1.61882
block_1,11168,9,15419,1,-154.207,-57.2955,5.70631,-154.207,-1.6633
block_1,11169,9,15420,1,-153.5,-55.9818,5.72524,-153.5,-1.66287
block_1,11170,9,15421,1,-166.597,-61.93,4.22163,-166.597,-1.69149
block_1,11171,9,15422,1,-165.834,-60.5113,4.23562,-165.834,-1.69126
block_1,11172,9,15423,1,-152.791,-54.6637,5.74446,-152.791,-1.66235
block_1,11173,9,15424,1,-152.079,-53.3411,5.76402,-152.079,-1.66174
block_1,11174,9,15425,1,-165.067,-59.0879,4.24983,-165.067,-1.69099
block_1,11175,9,15426,1,-164.299,-57.6595,4.26429,-164.299,-1.69067
block_1,11176,9,15427,1,-178.996,-66.5746,2.62287,-178.996,-1.71091
block_1,11177,9,15428,1,-178.176,-65.0511,2.63153,-178.176,-1.71083
block_1,11178,9,15429,1,-191.406,-71.2301,0.910148,-191.406,-1.72092
block_1,11179,9,15430,1,-190.53,-69.6018,0.913123,-190.53,-1.72091
block_1,11180,9,15431,1,-177.354,-63.5224,2.64034,-177.354,-1.71073
block_1,11181,9,15432,1,-176.528,-61.9884,2.6493,-176.528,-1.71061
block_1,11182,9,15433,1,-189.65,-67.9681,0.916145,-189.65,-1.7209
block_1,11183,9,15434,1,-188.768,-66.3287,0.919223,-188.768,-1.72089
block_1,11184,9,15435,1,-151.365,-52.0138,5.78397,-151.365,-1.66102
block_1,11185,9,15436,1,-150.649,-50.6819,5.80437,-150.649,-1.66018
block_1,11186,9,15437,1,-163.528,-56.226,4.27906,-163.528,-1.69028
block_1,11187,9,15438,1,-162.754,-54.7875,4.29417,-162.754,-1.68983
block_1,11188,9,15439,1,-149.93,-49.3451,5.82529,-149.93,-1.65921
block_1,11189,9,15440,1,-149.208,-48.0034,5.84681,-149.208,-1.6581
block_1,11190,9,15441,1,-161.978,-53.3436,4.30969,-161.978,-1.68931
block_1,11191,9,15442,1,-161.199,-51.8943,4.32567,-161.199,-1.68871
block_1,11192,9,15443,1,-175.7,-60.449,2.65845,-175.7,-1.71046
block_1,11193,9,15444,1,-174.869,-58.9041,2.66783,-174.869,-1.71029
block_1,11194,9,15445,1,-187.883,-64.6835,0.922367,-187.883,-1.72087
block_1,11195,9,15446,1,-186.995,-63.0325,0.925588,-186.995,-1.72084
block_1,11196,9,15447,1,-174.035,-57.3534,2.67747,-174.035,-1.71009
block_1,11197,9,15448,1,-173.199,-55.7968,2.68741,-173.199,-1.70986
block_1,11198,9,15449,1,-186.104,-61.3753,0.928901,-186.104,-1.72081
block_1,11199,9,15450,1,-185.21,-59.7118,0.932318,-185.21,-1.72077
block_1,11200,9,15451,1,-100.838,-31.6224,10.7952,-100.838,-1.45262
block_1,11201,9,15452,1,-100.345,-30.7071,10.8354,-100.345,-1.44758
block_1,11202,9,15453,1,-112.739,-35.3685,9.74111,-112.739,-1.51388
block_1,11203,9,15454,1,-112.187,-34.3438,9.77793,-112.187,-1.50982
block_1,11204,9,15455,1,-99.8491,-29.789,10.8767,-99.8491,-1.44199
block_1,11205,9,15456,1,-99.3519,-28.8681,10.9192,-99.3519,-1.43585
block_1,11206,9,15457,1,-111.633,-33.3157,9.81588,-111.633,-1.5053
block_1,11207,9,15458,1,-111.077,-32.2841,9.85506,-111.077,-1.50033
block_1,11208,9,15459,1,-124.646,-39.1222,8.56865,-124.646,-1.56891
block_1,11209,9,15460,1,-124.036,-37.9882,8.60149,-124.036,-1.5658
block_1,11210,9,15461,1,-136.561,-42.8845,7.27791,-136.561,-1.61685
block_1,11211,9,15462,1,-135.893,-41.6414,7.30612,-135.893,-1.61463
block_1,11212,9,15463,1,-123.424,-36.8502,8.63541,-123.424,-1.56233
block_1,11213,9,15464,1,-122.809,-35.708,8.67051,-122.809,-1.55851
block_1,11214,9,15465,1,-135.222,-40.3935,7.33533,-135.222,-1.61215
block_1,11215,9,15466,1,-134.549,-39.1408,7.36564,-134.549,-1.6094
block_1,11216,9,15467,1,-98.8532,-27.9444,10.9631,-98.8532,-1.42916
block_1,11217,9,15468,1,-98.3528,-27.018,11.0085,-98.3528,-1.42198
block_1,11218,9,15469,1,-110.519,-31.2491,9.8956,-110.519,-1.49491
block_1,11219,9,15470,1,-109.96,-30.2105,9.93757,-109.96,-1.48907
block_1,11220,9,15471,1,-97.8509,-26.0889,11.0553,-97.8509,-1.41438
block_1,11221,9,15472,1,-97.3474,-25.1572,11.1037,-97.3474,-1.40648
block_1,11222,9,15473,1,-109.398,-29.1683,9.98106,-109.398,-1.48289
block_1,11223,9,15474,1,-108.835,-28.1226,10.0261,-108.835,-1.47643
block_1,11224,9,15475,1,-122.193,-34.5615,8.70692,-122.193,-1.55433
block_1,11225,9,15476,1,-121.574,-33.4106,8.74471,-121.574,-1.54982
block_1,11226,9,15477,1,-133.873,-37.883,7.39713,-133.873,-1.60639
block_1,11227,9,15478,1,-133.195,-36.6201,7.42992,-133.195,-1.60314
block_1,11228,9,15479,1,-120.953,-32.2554,8.78398,-120.953,-1.54502
block_1,11229,9,15480,1,-120.33,-31.0956,8.82478,-120.33,-1.54
block_1,11230,9,15481,1,-132.515,-35.3518,7.46408,-132.515,-1.59967
block_1,11231,9,15482,1,-131.832,-34.078,7.49967,-131.832,-1.59602
block_1,11232,9,15483,1,-148.484,-46.6566,5.86902,-148.484,-1.65684
block_1,11233,9,15484,1,-147.758,-45.3045,5.89198,-147.758,-1.65541
block_1,11234,9,15485,1,-160.417,-50.4394,4.34218,-160.417,-1.68803
block_1,11235,9,15486,1,-159.632,-48.9787,4.35929,-159.632,-1.68725
block_1,11236,9,15487,1,-147.029,-43.9471,5.91581,-147.029,-1.6538
block_1,11237,9,15488,1,-146.297,-42.584,5.94059,-146.297,-1.65203
block_1,11238,9,15489,1,-158.845,-47.512,4.37708,-158.845,-1.68637
block_1,11239,9,15490,1,-158.055,-46.0389,4.39561,-158.055,-1.6854
block_1,11240,9,15491,1,-172.359,-54.2342,2.69768,-172.359,-1.70959
block_1,11241,9,15492,1,-171.517,-52.6651,2.70835,-171.517,-1.70929
block_1,11242,9,15493,1,-184.312,-58.0417,0.935857,-184.312,-1.72073
block_1,11243,9,15494,1,-183.412,-56.3648,0.939534,-183.412,-1.72068
block_1,11244,9,15495,1,-170.671,-51.0895,2.71946,-170.671,-1.70894
block_1,11245,9,15496,1,-169.822,-49.5069,2.73106,-169.822,-1.70856
block_1,11246,9,15497,1,-182.508,-54.6807,0.943367,-182.508,-1.72062
block_1,11247,9,15498,1,-181.601,-52.9891,0.947377,-181.601,-1.72056
block_1,11248,9,15499,1,-145.563,-41.2152,5.9664,-145.563,-1.65007
block_1,11249,9,15500,1,-144.826,-39.8403,5.99334,-144.826,-1.64795
block_1,11250,9,15501,1,-157.262,-44.5593,4.41497,-157.262,-1.68433
block_1,11251,9,15502,1,-156.465,-43.0729,4.43522,-156.465,-1.68316
block_1,11252,9,15503,1,-144.086,-38.4592,6.02148,-144.086,-1.64568
block_1,11253,9,15504,1,-143.343,-37.0717,6.05089,-143.343,-1.64328
block_1,11254,9,15505,1,-155.666,-41.5794,4.45643,-155.666,-1.6819
block_1,11255,9,15506,1,-154.863,-40.0784,4.47867,-154.863,-1.68057
block_1,11256,9,15507,1,-168.97,-47.917,2.7432,-168.97,-1.70813
block_1,11257,9,15508,1,-168.115,-46.3195,2.75593,-168.115,-1.70767
block_1,11258,9,15509,1,-180.69,-51.2895,0.951582,-180.69,-1.72048
block_1,11259,9,15510,1,-179.776,-49.5816,0.956002,-179.776,-1.7204
block_1,11260,9,15511,1,-167.256,-44.714,2.76931,-167.256,-1.70716
block_1,11261,9,15512,1,-166.394,-43.1,2.78338,-166.394,-1.70663
block_1,11262,9,15513,1,-178.858,-47.8647,0.960658,-178.858,-1.72031
block_1,11263,9,15514,1,-177.936,-46.1385,0.965565,-177.936,-1.72022
block_1,11264,9,15515,1,-16.4662,-1.49461,15.3505,-5.56828,-0.727188
block_1,11265,9,15516,1,-16.4934,-1.46782,15.3995,-5.54232,-0.710597
block_1,11266,9,15517,1,-18.6876,-4.34125,15.2543,-16.9709,-0.811664
block_1,11267,9,15518,1,-18.631,-4.20294,15.3059,-16.8854,-0.795709
block_1,11268,9,15519,1,-16.5233,-1.44443,15.4492,-5.51741,-0.694584
block_1,11269,9,15520,1,-16.5564,-1.42463,15.4996,-5.49377,-0.679881
block_1,11270,9,15521,1,-18.5764,-4.06749,15.3585,-16.8007,-0.780419
block_1,11271,9,15522,1,-18.524,-3.93504,15.4119,-16.7171,-0.76653
block_1,11272,9,15523,1,-28.3739,-7.18388,15.0368,-28.3739,-0.89777
block_1,11273,9,15524,1,-28.2286,-6.93329,15.0906,-28.2286,-0.882618
block_1,11274,9,15525,1,-39.7779,-10.0235,14.6974,-39.7779,-0.984671
block_1,11275,9,15526,1,-39.5728,-9.65998,14.7527,-39.5728,-0.970467
block_1,11276,9,15527,1,-28.084,-6.68496,15.1453,-28.084,-0.868182
block_1,11277,9,15528,1,-27.9402,-6.43899,15.2011,-27.9402,-0.855186
block_1,11278,9,15529,1,-39.3681,-9.29799,14.8091,-39.3681,-0.956992
block_1,11279,9,15530,1,-39.1638,-8.93769,14.8665,-39.1638,-0.944945
block_1,11280,9,15531,1,-16.5935,-1.40853,15.551,-5.47168,-0.667428
block_1,11281,9,15532,1,-16.6352,-1.39616,15.6034,-5.45146,-0.658418
block_1,11282,9,15533,1,-18.4743,-3.80568,15.4663,-16.6348,-0.754986
block_1,11283,9,15534,1,-18.4278,-3.67939,15.5217,-16.5541,-0.746979
block_1,11284,9,15535,1,-16.6825,-1.38743,15.6571,-5.43345,-0.654342
block_1,11285,9,15536,1,-16.7362,-1.38207,15.7122,-5.41806,-0.657044
block_1,11286,9,15537,1,-18.3849,-3.55602,15.5783,-16.4754,-0.743986
block_1,11287,9,15538,1,-18.3462,-3.43526,15.6358,-16.399,-0.747825
block_1,11288,9,15539,1,-27.7974,-6.19544,15.2579,-27.7974,-0.844558
block_1,11289,9,15540,1,-27.656,-5.95427,15.3157,-27.656,-0.837459
block_1,11290,9,15541,1,-38.9603,-8.57911,14.925,-38.9603,-0.935215
block_1,11291,9,15542,1,-38.7579,-8.22218,14.9844,-38.7579,-0.92891
block_1,11292,9,15543,1,-27.5162,-5.71531,15.3743,-27.5162,-0.835325
block_1,11293,9,15544,1,-27.3784,-5.47823,15.4336,-27.3784,-0.83991
block_1,11294,9,15545,1,-38.5567,-7.86675,15.0444,-38.5567,-0.927396
block_1,11295,9,15546,1,-38.3573,-7.51251,15.1048,-38.3573,-0.932331
block_1,11296,9,15547,1,-51.1839,-12.8614,14.2356,-51.1839,-1.07148
block_1,11297,9,15548,1,-50.9187,-12.3842,14.2917,-50.9187,-1.05835
block_1,11298,9,15549,1,-62.5925,-15.6989,13.6507,-62.5925,-1.15727
block_1,11299,9,15550,1,-62.2672,-15.1074,13.7069,-62.2672,-1.14531
block_1,11300,9,15551,1,-50.6537,-11.9079,14.349,-50.6537,-1.04592
block_1,11301,9,15552,1,-50.3888,-11.4325,14.4074,-50.3888,-1.03487
block_1,11302,9,15553,1,-61.9416,-14.5161,13.7644,-61.9416,-1.13401
block_1,11303,9,15554,1,-61.616,-13.9249,13.8231,-61.616,-1.12397
block_1,11304,9,15555,1,-74.0045,-18.5372,12.9424,-74.0045,-1.24104
block_1,11305,9,15556,1,-73.619,-17.831,12.9979,-73.619,-1.23036
block_1,11306,9,15557,1,-85.4209,-21.378,12.1102,-85.4209,-1.32179
block_1,11307,9,15558,1,-84.975,-20.5565,12.1642,-84.975,-1.31244
block_1,11308,9,15559,1,-73.2328,-17.1241,13.0548,-73.2328,-1.22025
block_1,11309,9,15560,1,-72.8462,-16.4164,13.1129,-72.8462,-1.21126
block_1,11310,9,15561,1,-84.5281,-19.7335,12.2196,-84.5281,-1.30357
block_1,11311,9,15562,1,-84.0803,-18.9089,12.2763,-84.0803,-1.29566
block_1,11312,9,15563,1,-50.1244,-10.9581,14.4669,-50.1244,-1.02601
block_1,11313,9,15564,1,-49.8606,-10.4846,14.5272,-49.8606,-1.02038
block_1,11314,9,15565,1,-61.2904,-13.3339,13.8828,-61.2904,-1.11595
block_1,11315,9,15566,1,-60.9651,-12.7431,13.9432,-60.9651,-1.1109
block_1,11316,9,15567,1,-49.5979,-10.0119,14.5879,-49.5979,-1.01925
block_1,11317,9,15568,1,-49.3364,-9.53965,14.6486,-49.3364,-1.02417
block_1,11318,9,15569,1,-60.6405,-12.1523,14.0039,-60.6405,-1.10997
block_1,11319,9,15570,1,-60.3167,-11.5613,14.0644,-60.3167,-1.11454
block_1,11320,9,15571,1,-72.4593,-15.7082,13.1721,-72.4593,-1.20406
block_1,11321,9,15572,1,-72.0723,-14.9993,13.2319,-72.0723,-1.1995
block_1,11322,9,15573,1,-83.6319,-18.0827,12.3341,-83.6319,-1.28929
block_1,11323,9,15574,1,-83.183,-17.255,12.3925,-83.183,-1.28517
block_1,11324,9,15575,1,-71.6854,-14.2896,13.2919,-71.6854,-1.1986
block_1,11325,9,15576,1,-71.2991,-13.5791,13.3514,-71.2991,-1.20258
block_1,11326,9,15577,1,-82.7337,-16.4258,12.451,-82.7337,-1.2842
block_1,11327,9,15578,1,-82.2845,-15.5949,12.509,-82.2845,-1.28743
block_1,11328,9,15579,1,-16.7973,-1.37961,15.7688,-5.40573,-0.66878
block_1,11329,9,15580,1,-16.8669,-1.37928,15.8271,-5.39695,-0.692281
block_1,11330,9,15581,1,-18.3123,-3.3166,15.6944,-16.3253,-0.760703
block_1,11331,9,15582,1,-18.2837,-3.19924,15.7537,-16.2549,-0.785267
block_1,11332,9,15583,1,-16.9461,-1.38,15.8869,-5.39226,-0.73082
block_1,11333,9,15584,1,-17.0358,-1.38025,15.9483,-5.39223,-0.788282
block_1,11334,9,15585,1,-18.2609,-3.08207,15.8136,-16.1882,-0.824658
block_1,11335,9,15586,1,-18.2446,-2.96359,15.8733,-16.1258,-0.88256
block_1,11336,9,15587,1,-27.2431,-5.24251,15.4933,-27.2431,-0.853329
block_1,11337,9,15588,1,-27.1106,-5.00738,15.5531,-27.1106,-0.878097
block_1,11338,9,15589,1,-38.1599,-7.15895,15.165,-38.1599,-0.945701
block_1,11339,9,15590,1,-37.9649,-6.80539,15.2244,-37.9649,-0.969852
block_1,11340,9,15591,1,-26.9814,-4.77178,15.6121,-26.9814,-0.917173
block_1,11341,9,15592,1,-26.8561,-4.5343,15.6696,-26.8561,-0.973982
block_1,11342,9,15593,1,-37.7728,-6.45086,15.2822,-37.7728,-1.00751
block_1,11343,9,15594,1,-37.5841,-6.09411,15.337,-37.5841,-1.06182
block_1,11344,9,15595,1,-17.137,-1.37799,16.0108,-5.39748,-0.869222
block_1,11345,9,15596,1,-17.2502,-1.37059,16.0736,-5.40862,-0.978914
block_1,11346,9,15597,1,-18.2352,-2.84184,15.9322,-16.0681,-0.963232
block_1,11347,9,15598,1,-18.2327,-2.71435,15.9888,-16.0158,-1.07152
block_1,11348,9,15599,1,-17.3757,-1.35474,16.1354,-5.4263,-1.12337
block_1,11349,9,15600,1,-17.513,-1.32637,16.1942,-5.45109,-1.30932
block_1,11350,9,15601,1,-18.2374,-2.57806,16.0413,-15.9694,-1.21285
block_1,11351,9,15602,1,-18.2487,-2.42932,16.087,-15.9294,-1.39314
block_1,11352,9,15603,1,-26.735,-4.29314,15.7243,-26.735,-1.05244
block_1,11353,9,15604,1,-26.6187,-4.04607,15.7745,-26.6187,-1.15691
block_1,11354,9,15605,1,-37.3991,-5.73359,15.3874,-37.3991,-1.13629
block_1,11355,9,15606,1,-37.2185,-5.36739,15.4312,-37.2185,-1.23483
block_1,11356,9,15607,1,-26.5078,-3.79043,15.8177,-26.5078,-1.29221
block_1,11357,9,15608,1,-26.4025,-3.52308,15.8508,-26.4025,-1.46344
block_1,11358,9,15609,1,-37.0425,-4.99329,15.4657,-37.0425,-1.3616
block_1,11359,9,15610,1,-36.8717,-4.60874,15.4874,-36.8717,-1.52096
block_1,11360,9,15611,1,-49.0766,-9.06752,14.7087,-49.0766,-1.03695
block_1,11361,9,15612,1,-48.8187,-8.59487,14.7674,-48.8187,-1.05974
block_1,11362,9,15613,1,-59.9941,-10.9698,14.1238,-59.9941,-1.12627
block_1,11363,9,15614,1,-59.6731,-10.3774,14.1812,-59.6731,-1.14707
block_1,11364,9,15615,1,-48.5634,-8.1209,14.8234,-48.5634,-1.09501
block_1,11365,9,15616,1,-48.3108,-7.64457,14.8754,-48.3108,-1.14558
block_1,11366,9,15617,1,-59.354,-9.78341,14.2353,-59.354,-1.17914
block_1,11367,9,15618,1,-59.0373,-9.18706,14.2845,-59.0373,-1.22496
block_1,11368,9,15619,1,-70.9134,-12.8676,13.4096,-70.9134,-1.2129
block_1,11369,9,15620,1,-70.5288,-12.1546,13.4655,-70.5288,-1.23123
block_1,11370,9,15621,1,-81.8355,-14.7624,12.5654,-81.8355,-1.2961
block_1,11371,9,15622,1,-81.3871,-13.9281,12.6193,-81.3871,-1.31164
block_1,11372,9,15623,1,-70.1457,-11.4399,13.5174,-70.1457,-1.25948
block_1,11373,9,15624,1,-69.7645,-10.7228,13.5638,-69.7645,-1.2998
block_1,11374,9,15625,1,-80.9396,-13.0917,12.669,-80.9396,-1.33568
block_1,11375,9,15626,1,-80.4934,-12.2531,12.7127,-80.4934,-1.37001
block_1,11376,9,15627,1,-48.0616,-7.16462,14.9215,-48.0616,-1.21456
block_1,11377,9,15628,1,-47.8161,-6.67952,14.9594,-47.8161,-1.30537
block_1,11378,9,15629,1,-58.7234,-8.58739,14.3267,-58.7234,-1.28725
block_1,11379,9,15630,1,-58.4127,-7.98332,14.3593,-58.4127,-1.36893
block_1,11380,9,15631,1,-47.5748,-6.18753,14.9861,-47.5748,-1.42159
block_1,11381,9,15632,1,-47.3381,-5.68674,14.9979,-47.3381,-1.56685
block_1,11382,9,15633,1,-58.1056,-7.37361,14.3794,-58.1056,-1.47304
block_1,11383,9,15634,1,-57.8026,-6.75697,14.3831,-57.8026,-1.60259
block_1,11384,9,15635,1,-69.3855,-10.0029,13.6025,-69.3855,-1.35451
block_1,11385,9,15636,1,-69.0092,-9.27941,13.6308,-69.0092,-1.42608
block_1,11386,9,15637,1,-80.049,-11.412,12.7484,-80.049,-1.4166
block_1,11387,9,15638,1,-79.6067,-10.5683,12.7732,-79.6067,-1.47748
block_1,11388,9,15639,1,-68.636,-8.55165,13.6456,-68.636,-1.51703
block_1,11389,9,15640,1,-68.2664,-7.81895,13.6432,-68.2664,-1.62982
block_1,11390,9,15641,1,-79.167,-9.72161,12.7842,-79.167,-1.55471
block_1,11391,9,15642,1,-78.7305,-8.87199,12.7776,-78.7305,-1.65027
block_1,11392,9,15643,1,-96.8424,-24.2228,11.1538,-96.8424,-1.39843
block_1,11393,9,15644,1,-96.336,-23.2857,11.2054,-96.336,-1.39047
block_1,11394,9,15645,1,-108.27,-27.0733,10.0728,-108.27,-1.46984
block_1,11395,9,15646,1,-107.703,-26.0204,10.1211,-107.703,-1.46329
block_1,11396,9,15647,1,-95.8283,-22.3461,11.2584,-95.8283,-1.38289
block_1,11397,9,15648,1,-95.3193,-21.404,11.3128,-95.3193,-1.37608
block_1,11398,9,15649,1,-107.134,-24.9638,10.1708,-107.134,-1.45703
block_1,11399,9,15650,1,-106.564,-23.9037,10.2219,-106.564,-1.45136
block_1,11400,9,15651,1,-119.704,-29.9313,8.86715,-119.704,-1.53486
block_1,11401,9,15652,1,-119.077,-28.7623,8.91107,-119.077,-1.52972
block_1,11402,9,15653,1,-131.146,-32.7987,7.53673,-131.146,-1.59226
block_1,11403,9,15654,1,-130.458,-31.5136,7.57526,-130.458,-1.58849
block_1,11404,9,15655,1,-118.447,-27.5886,8.95647,-118.447,-1.52478
block_1,11405,9,15656,1,-117.815,-26.4103,9.00321,-117.815,-1.52026
block_1,11406,9,15657,1,-129.768,-30.2227,7.61521,-129.768,-1.58484
block_1,11407,9,15658,1,-129.074,-28.9258,7.65646,-129.074,-1.58145
block_1,11408,9,15659,1,-94.8092,-20.4593,11.3683,-94.8092,-1.37054
block_1,11409,9,15660,1,-94.2981,-19.5122,11.4244,-94.2981,-1.36686
block_1,11410,9,15661,1,-105.992,-22.8401,10.2741,-105.992,-1.44667
block_1,11411,9,15662,1,-105.419,-21.7729,10.327,-105.419,-1.44345
block_1,11412,9,15663,1,-93.7863,-18.5626,11.4806,-93.7863,-1.36578
block_1,11413,9,15664,1,-93.274,-17.6106,11.5363,-93.274,-1.36819
block_1,11414,9,15665,1,-104.844,-20.7023,10.38,-104.844,-1.44229
block_1,11415,9,15666,1,-104.269,-19.6283,10.4326,-104.269,-1.44388
block_1,11416,9,15667,1,-117.182,-25.2272,9.05106,-117.182,-1.51645
block_1,11417,9,15668,1,-116.546,-24.0394,9.09966,-116.546,-1.51374
block_1,11418,9,15669,1,-128.379,-27.6229,7.69881,-128.379,-1.57856
block_1,11419,9,15670,1,-127.68,-26.314,7.74195,-127.68,-1.5764
block_1,11420,9,15671,1,-115.908,-22.847,9.14852,-115.908,-1.51255
block_1,11421,9,15672,1,-115.269,-21.6501,9.19699,-115.269,-1.51344
block_1,11422,9,15673,1,-126.98,-24.9993,7.78546,-126.98,-1.5753
block_1,11423,9,15674,1,-126.277,-23.6787,7.82875,-126.277,-1.57565
block_1,11424,9,15675,1,-142.597,-35.6775,6.08161,-142.597,-1.6408
block_1,11425,9,15676,1,-141.849,-34.2763,6.11364,-141.849,-1.6383
block_1,11426,9,15677,1,-154.058,-38.5696,4.50197,-154.058,-1.67918
block_1,11427,9,15678,1,-153.248,-37.0527,4.52635,-153.248,-1.67777
block_1,11428,9,15679,1,-141.097,-32.8681,6.14697,-141.097,-1.63585
block_1,11429,9,15680,1,-140.342,-31.4527,6.18149,-140.342,-1.63355
block_1,11430,9,15681,1,-152.436,-35.5275,4.5518,-152.436,-1.67638
block_1,11431,9,15682,1,-151.619,-33.9936,4.57826,-151.619,-1.67506
block_1,11432,9,15683,1,-165.528,-41.4772,2.79816,-165.528,-1.70607
block_1,11433,9,15684,1,-164.659,-39.845,2.81369,-164.659,-1.70549
block_1,11434,9,15685,1,-177.01,-44.4023,0.97074,-177.01,-1.72011
block_1,11435,9,15686,1,-176.08,-42.6556,0.976192,-176.08,-1.72001
block_1,11436,9,15687,1,-163.785,-38.2031,2.82996,-163.785,-1.70492
block_1,11437,9,15688,1,-162.907,-36.5511,2.84695,-162.907,-1.70437
block_1,11438,9,15689,1,-175.146,-40.8977,0.981926,-175.146,-1.71991
block_1,11439,9,15690,1,-174.207,-39.1282,0.987936,-174.207,-1.7198
block_1,11440,9,15691,1,-139.584,-30.0298,6.21706,-139.584,-1.63155
block_1,11441,9,15692,1,-138.824,-28.5996,6.25342,-138.824,-1.63
block_1,11442,9,15693,1,-150.8,-32.4507,4.60564,-150.8,-1.67388
block_1,11443,9,15694,1,-149.976,-30.8989,4.63375,-149.976,-1.67294
block_1,11444,9,15695,1,-138.06,-27.1619,6.29024,-138.06,-1.6291
block_1,11445,9,15696,1,-137.293,-25.7169,6.32702,-137.293,-1.62911
block_1,11446,9,15697,1,-149.149,-29.3379,4.66235,-149.149,-1.67233
block_1,11447,9,15698,1,-148.319,-27.7678,4.69106,-148.319,-1.6722
block_1,11448,9,15699,1,-162.026,-34.8885,2.8646,-162.026,-1.70387
block_1,11449,9,15700,1,-161.14,-33.2151,2.88282,-161.14,-1.70346
block_1,11450,9,15701,1,-173.263,-37.3463,0.994208,-173.263,-1.71971
block_1,11451,9,15702,1,-172.315,-35.5517,1.00071,-172.315,-1.71963
block_1,11452,9,15703,1,-160.249,-31.5306,2.90144,-160.249,-1.70317
block_1,11453,9,15704,1,-159.355,-29.8351,2.92026,-159.355,-1.70307
block_1,11454,9,15705,1,-171.361,-33.7439,1.00739,-171.361,-1.71958
block_1,11455,9,15706,1,-170.403,-31.9226,1.01419,-170.403,-1.71956
block_1,11456,9,15707,1,-92.7614,-16.6562,11.5904,-92.7614,-1.3751
block_1,11457,9,15708,1,-92.2488,-15.6995,11.6418,-92.2488,-1.3877
block_1,11458,9,15709,1,-103.692,-18.5511,10.4837,-103.692,-1.44905
block_1,11459,9,15710,1,-103.115,-17.4708,10.5322,-103.115,-1.45875
block_1,11460,9,15711,1,-91.7366,-14.7404,11.6891,-91.7366,-1.40734
block_1,11461,9,15712,1,-91.2251,-13.7791,11.7303,-91.2251,-1.4355
block_1,11462,9,15713,1,-102.538,-16.3878,10.5766,-102.538,-1.47405
block_1,11463,9,15714,1,-101.961,-15.3024,10.6153,-101.961,-1.49611
block_1,11464,9,15715,1,-114.629,-20.4491,9.24421,-114.629,-1.51702
block_1,11465,9,15716,1,-113.987,-19.2441,9.2891,-113.987,-1.52401
block_1,11466,9,15717,1,-125.572,-22.3528,7.87106,-125.572,-1.57787
block_1,11467,9,15718,1,-124.865,-21.0218,7.91142,-124.865,-1.58249
block_1,11468,9,15719,1,-113.344,-18.0357,9.3303,-113.344,-1.53522
block_1,11469,9,15720,1,-112.701,-16.8244,9.36618,-112.701,-1.55154
block_1,11470,9,15721,1,-124.157,-19.6863,7.94864,-124.157,-1.59008
block_1,11471,9,15722,1,-123.448,-18.3472,7.98126,-123.448,-1.60127
block_1,11472,9,15723,1,-90.7148,-12.8157,11.7633,-90.7148,-1.47377
block_1,11473,9,15724,1,-90.2062,-11.8503,11.7856,-90.2062,-1.52379
block_1,11474,9,15725,1,-101.384,-14.2149,10.646,-101.384,-1.5262
block_1,11475,9,15726,1,-100.809,-13.1262,10.6664,-100.809,-1.56561
block_1,11476,9,15727,1,-89.6996,-10.8834,11.794,-89.6996,-1.58722
block_1,11477,9,15728,1,-89.1957,-9.9153,11.7853,-89.1957,-1.66562
block_1,11478,9,15729,1,-100.235,-12.0369,10.6737,-100.235,-1.61563
block_1,11479,9,15730,1,-99.6631,-10.9481,10.6644,-99.6631,-1.67744
block_1,11480,9,15731,1,-112.058,-15.611,9.3948,-112.058,-1.57393
block_1,11481,9,15732,1,-111.415,-14.3966,9.41387,-111.415,-1.60335
block_1,11482,9,15733,1,-122.738,-17.0056,8.00754,-122.738,-1.61673
block_1,11483,9,15734,1,-122.027,-15.6628,8.02544,-122.027,-1.63716
block_1,11484,9,15735,1,-110.774,-13.1824,9.42079,-110.774,-1.64078
block_1,11485,9,15736,1,-110.134,-11.97,9.4126,-110.134,-1.68709
block_1,11486,9,15737,1,-121.317,-14.3204,8.03266,-121.317,-1.66325
block_1,11487,9,15738,1,-120.608,-12.9807,8.0266,-120.608,-1.69561
block_1,11488,9,15739,1,-136.524,-24.265,6.36314,-136.524,-1.63029
block_1,11489,9,15740,1,-135.752,-22.8066,6.3978,-135.752,-1.63299
block_1,11490,9,15741,1,-147.485,-26.189,4.71944,-147.485,-1.6727
block_1,11491,9,15742,1,-146.647,-24.6018,4.74685,-146.647,-1.67401
block_1,11492,9,15743,1,-134.978,-21.3424,6.42999,-134.978,-1.63758
block_1,11493,9,15744,1,-134.202,-19.8733,6.45848,-134.202,-1.64445
block_1,11494,9,15745,1,-145.807,-23.0071,4.77255,-145.807,-1.67633
block_1,11495,9,15746,1,-144.964,-21.4057,4.7956,-144.964,-1.67988
block_1,11496,9,15747,1,-158.456,-28.1285,2.93898,-158.456,-1.70321
block_1,11497,9,15748,1,-157.553,-26.4113,2.95723,-157.553,-1.70366
block_1,11498,9,15749,1,-169.439,-30.0877,1.021,-169.439,-1.71958
block_1,11499,9,15750,1,-168.471,-28.2395,1.02769,-168.471,-1.71966
block_1,11500,9,15751,1,-156.646,-24.6842,2.97452,-156.646,-1.70451
block_1,11501,9,15752,1,-155.736,-22.9482,2.99026,-155.736,-1.70584
block_1,11502,9,15753,1,-167.497,-26.3784,1.0341,-167.497,-1.71981
block_1,11503,9,15754,1,-166.519,-24.5053,1.04002,-166.519,-1.72006
block_1,11504,9,15755,1,-133.424,-18.4007,6.48181,-133.424,-1.65405
block_1,11505,9,15756,1,-132.645,-16.9263,6.49828,-132.645,-1.66683
block_1,11506,9,15757,1,-144.118,-19.7993,4.81487,-144.118,-1.6849
block_1,11507,9,15758,1,-143.271,-18.1896,4.82906,-143.271,-1.69165
block_1,11508,9,15759,1,-131.866,-15.452,6.50593,-131.866,-1.68322
block_1,11509,9,15760,1,-131.088,-13.9806,6.50257,-131.088,-1.70364
block_1,11510,9,15761,1,-142.422,-16.5791,4.83664,-142.422,-1.70037
block_1,11511,9,15762,1,-141.574,-14.9707,4.83594,-141.574,-1.71128
block_1,11512,9,15763,1,-154.822,-21.2047,3.00373,-154.822,-1.70775
block_1,11513,9,15764,1,-153.905,-19.4559,3.01408,-153.905,-1.71035
block_1,11514,9,15765,1,-165.537,-22.6216,1.0452,-165.537,-1.72041
block_1,11515,9,15766,1,-164.55,-20.7295,1.04934,-164.55,-1.72089
block_1,11516,9,15767,1,-152.987,-17.7043,3.02035,-152.987,-1.71372
block_1,11517,9,15768,1,-152.067,-15.9533,3.02142,-152.067,-1.71798
block_1,11518,9,15769,1,-163.561,-18.8316,1.05209,-163.561,-1.72152
block_1,11519,9,15770,1,-162.569,-16.9315,1.05305,-162.569,-1.72232
block_1,11520,9,15771,1,-17.6609,-1.28057,16.2469,-5.48355,-1.5441
block_1,11521,9,15772,1,-17.8167,-1.21172,16.2889,-5.52409,-1.83542
block_1,11522,9,15773,1,-18.2657,-2.26392,16.1221,-15.8962,-1.61864
block_1,11523,9,15774,1,-18.287,-2.07712,16.1417,-15.8702,-1.89568
block_1,11524,9,15775,1,-17.9763,-1.1135,16.3137,-5.57296,-2.19103
block_1,11525,9,15776,1,-18.1337,-0.979296,16.3129,-5.63012,-2.61805
block_1,11526,9,15777,1,-18.3247,-1.86391,16.1389,-15.8515,-2.23027
block_1,11527,9,15778,1,-18.3652,-1.61929,16.1051,-15.84,-2.62749
block_1,11528,9,15779,1,-26.3034,-3.24054,15.8697,-26.3034,-1.67585
block_1,11529,9,15780,1,-26.2107,-2.93904,15.8691,-26.2107,-1.93452
block_1,11530,9,15781,1,-36.7064,-4.21102,15.492,-36.7064,-1.71722
block_1,11531,9,15782,1,-36.5467,-3.79731,15.474,-36.5467,-1.95439
block_1,11532,9,15783,1,-26.1244,-2.6148,15.8422,-26.1244,-2.24397
block_1,11533,9,15784,1,-26.0444,-2.26431,15.7807,-26.0444,-2.60761
block_1,11534,9,15785,1,-36.3928,-3.36496,15.4269,-36.3928,-2.23576
block_1,11535,9,15786,1,-36.2446,-2.91179,15.3429,-36.2446,-2.56346
block_1,11536,9,15787,1,-18.2802,-0.80261,16.2748,-5.69522,-3.12214
block_1,11537,9,15788,1,-18.4045,-0.577902,16.1851,-5.76742,-3.70628
block_1,11538,9,15789,1,-18.3937,-1.3388,16.0296,-15.8353,-3.09069
block_1,11539,9,15790,1,-18.4017,-1.01922,15.8992,-15.8365,-3.62045
block_1,11540,9,15791,1,-18.4924,-0.301636,16.0264,-5.84536,-4.36923
block_1,11541,9,15792,1,-18.5266,0.0263756,15.7786,-5.92699,-5.10385
block_1,11542,9,15793,1,-18.379,-0.659455,15.6987,-15.8424,-4.21345
block_1,11543,9,15794,1,-18.3138,-0.261529,15.4117,-15.8513,-4.86113
block_1,11544,9,15795,1,-25.9704,-1.88484,15.6745,-25.9704,-3.02705
block_1,11545,9,15796,1,-25.9015,-1.47504,15.5121,-25.9015,-3.5012
block_1,11546,9,15797,1,-36.1018,-2.43652,15.213,-36.1018,-2.93779
block_1,11547,9,15798,1,-35.9637,-1.93923,15.027,-35.9637,-3.3566
block_1,11548,9,15799,1,-25.8368,-1.03561,15.2806,-25.8368,-4.02544
block_1,11549,9,15800,1,-25.7747,-0.570118,14.9665,-25.7747,-4.59065
block_1,11550,9,15801,1,-35.8294,-1.422,14.7741,-35.8294,-3.81457
block_1,11551,9,15802,1,-35.6977,-0.889336,14.4435,-35.6977,-4.3026
block_1,11552,9,15803,1,-47.1062,-5.17516,14.9904,-47.1062,-1.74466
block_1,11553,9,15804,1,-46.8795,-4.65089,14.9583,-46.8795,-1.95812
block_1,11554,9,15805,1,-57.504,-6.13215,14.3661,-57.504,-1.76036
block_1,11555,9,15806,1,-57.2101,-5.49809,14.3232,-57.2101,-1.94872
block_1,11556,9,15807,1,-46.658,-4.1123,14.8954,-46.658,-2.20954
block_1,11557,9,15808,1,-46.4418,-3.55836,14.7943,-46.4418,-2.50008
block_1,11558,9,15809,1,-56.921,-4.85409,14.2486,-56.921,-2.16925
block_1,11559,9,15810,1,-56.6368,-4.20009,14.1358,-56.6368,-2.42239
block_1,11560,9,15811,1,-67.9008,-7.08077,13.6193,-67.9008,-1.76665
block_1,11561,9,15812,1,-67.5394,-6.33681,13.5691,-67.5394,-1.92929
block_1,11562,9,15813,1,-78.2974,-8.01954,12.7495,-78.2974,-1.76587
block_1,11563,9,15814,1,-77.8684,-7.16469,12.6952,-77.8684,-1.90283
block_1,11564,9,15815,1,-67.1826,-5.58721,13.4871,-67.1826,-2.11876
block_1,11565,9,15816,1,-66.8304,-4.83275,13.3674,-66.8304,-2.33507
block_1,11566,9,15817,1,-77.4436,-6.30833,12.6099,-77.4436,-2.06178
block_1,11567,9,15818,1,-77.0234,-5.45195,12.4882,-77.0234,-2.24247
block_1,11568,9,15819,1,-46.2305,-2.98896,14.6471,-46.2305,-2.82917
block_1,11569,9,15820,1,-46.0238,-2.40534,14.4452,-46.0238,-3.19404
block_1,11570,9,15821,1,-56.3574,-3.53694,13.9776,-56.3574,-2.70706
block_1,11571,9,15822,1,-56.0825,-2.86675,13.7668,-56.0825,-3.02018
block_1,11572,9,15823,1,-45.8208,-1.81049,14.1796,-45.8208,-3.58911
block_1,11573,9,15824,1,-45.6208,-1.20958,13.8416,-45.6208,-4.00567
block_1,11574,9,15825,1,-55.8116,-2.19318,13.4961,-55.8116,-3.35629
block_1,11575,9,15826,1,-55.5441,-1.52175,13.1587,-55.5441,-3.70725
block_1,11576,9,15827,1,-66.483,-4.07505,13.2041,-66.483,-2.57685
block_1,11577,9,15828,1,-66.1403,-3.31689,12.9908,-66.1403,-2.84101
block_1,11578,9,15829,1,-76.6081,-4.59784,12.325,-76.6081,-2.44345
block_1,11579,9,15830,1,-76.1976,-3.74929,12.115,-76.1976,-2.66184
block_1,11580,9,15831,1,-65.8019,-2.56239,12.7217,-65.8019,-3.12242
block_1,11581,9,15832,1,-65.4676,-1.81725,12.3918,-65.4676,-3.41369
block_1,11582,9,15833,1,-75.792,-2.91073,11.8537,-75.792,-2.89301
block_1,11583,9,15834,1,-75.3912,-2.08792,11.5372,-75.3912,-3.13042
block_1,11584,9,15835,1,-18.4876,0.401533,15.4203,-6.00961,-5.89532
block_1,11585,9,15836,1,-18.3543,0.813151,14.9309,-6.08978,-6.71983
block_1,11586,9,15837,1,-18.2033,0.168394,15.0212,-15.8608,-5.5486
block_1,11587,9,15838,1,-18.0725,0.619267,14.5118,-15.8681,-6.254
block_1,11588,9,15839,1,-18.1059,1.24373,14.2933,-6.1635,-7.54411
block_1,11589,9,15840,1,-17.7238,1.66923,13.4973,-6.22636,-8.32645
block_1,11590,9,15841,1,-17.8845,1.07492,13.8717,-15.8701,-6.94851
block_1,11591,9,15842,1,-17.6309,1.51463,13.0953,-15.8634,-7.59754
block_1,11592,9,15843,1,-25.7133,-0.0855705,14.5566,-25.7133,-5.18257
block_1,11593,9,15844,1,-25.6503,0.407131,14.0396,-25.6503,-5.78151
block_1,11594,9,15845,1,-35.5672,-0.348688,14.025,-35.5672,-4.80741
block_1,11595,9,15846,1,-35.436,0.189451,13.5103,-35.436,-5.31151
block_1,11596,9,15847,1,-25.5834,0.893268,13.4074,-25.5834,-6.36274
block_1,11597,9,15848,1,-25.5099,1.35498,12.6573,-25.5099,-6.89766
block_1,11598,9,15849,1,-35.3023,0.711744,12.8943,-35.3023,-5.79375
block_1,11599,9,15850,1,-35.1641,1.20271,12.1761,-35.1641,-6.23045
block_1,11600,9,15851,1,-17.1939,2.0607,12.5433,-6.27387,-9.01944
block_1,11601,9,15852,1,-16.5091,2.38736,11.4446,-6.30185,-9.57461
block_1,11602,9,15853,1,-17.3059,1.91461,12.1853,-15.8445,-8.16322
block_1,11603,9,15854,1,-16.9071,2.2505,11.1549,-15.8103,-8.60794
block_1,11604,9,15855,1,-15.6712,2.62077,10.2287,-6.30684,-9.94834
block_1,11605,9,15856,1,-14.6918,2.73934,8.93557,-6.28655,-10.108
block_1,11606,9,15857,1,-16.4359,2.50046,10.0276,-15.7585,-8.89874
block_1,11607,9,15858,1,-15.8984,2.64836,8.83624,-15.6874,-9.01159
block_1,11608,9,15859,1,-25.4272,1.77261,11.7936,-25.4272,-7.35593
block_1,11609,9,15860,1,-25.3332,2.12672,10.8284,-25.3332,-7.70827
block_1,11610,9,15861,1,-35.0196,1.64596,11.3606,-35.0196,-6.59723
block_1,11611,9,15862,1,-34.8672,2.02577,10.4584,-34.8672,-6.87122
block_1,11612,9,15863,1,-25.226,2.40039,9.78178,-25.226,-7.92972
block_1,11613,9,15864,1,-25.1048,2.5815,8.68093,-25.1048,-8.00267
block_1,11614,9,15865,1,-34.7058,2.32891,9.48674,-34.7058,-7.03355
block_1,11615,9,15866,1,-34.5347,2.54628,8.46802,-34.5347,-7.07156
block_1,11616,9,15867,1,-45.4225,-0.610167,13.4236,-45.4225,-4.43157
block_1,11617,9,15868,1,-45.2247,-0.0222489,12.9197,-45.2247,-4.85142
block_1,11618,9,15869,1,-55.2791,-0.859998,12.7489,-55.2791,-4.06215
block_1,11619,9,15870,1,-55.0157,-0.217405,12.2629,-55.0157,-4.40742
block_1,11620,9,15871,1,-45.0258,0.542041,12.3267,-45.0258,-5.2471
block_1,11621,9,15872,1,-44.8245,1.06913,11.645,-44.8245,-5.59891
block_1,11622,9,15873,1,-54.7528,0.39488,11.6988,-54.7528,-4.7275
block_1,11623,9,15874,1,-54.4895,0.964721,11.0578,-54.4895,-5.00577
block_1,11624,9,15875,1,-65.1366,-1.08886,11.997,-65.1366,-3.7051
block_1,11625,9,15876,1,-64.8085,-0.386236,11.5348,-64.8085,-3.98475
block_1,11626,9,15877,1,-74.9948,-1.28803,11.1631,-74.9948,-3.36554
block_1,11627,9,15878,1,-74.6024,-0.519621,10.7301,-74.6024,-3.5879
block_1,11628,9,15879,1,-64.4824,0.280244,11.0048,-64.4824,-4.23906
block_1,11629,9,15880,1,-64.1577,0.899436,10.4084,-64.1577,-4.45373
block_1,11630,9,15881,1,-74.2136,0.207509,10.2387,-74.2136,-3.78551
block_1,11631,9,15882,1,-73.8281,0.88282,9.69082,-73.8281,-3.94563
block_1,11632,9,15883,1,-44.6195,1.54509,10.8794,-44.6195,-5.8871
block_1,11633,9,15884,1,-44.4097,1.95702,10.0392,-44.4097,-6.09374
block_1,11634,9,15885,1,-54.2249,1.47999,10.3442,-54.2249,-5.22601
block_1,11635,9,15886,1,-53.9583,1.92977,9.56591,-53.9583,-5.37405
block_1,11636,9,15887,1,-44.1945,2.29444,9.13866,-44.1945,-6.20469
block_1,11637,9,15888,1,-43.9737,2.55058,8.19623,-43.9737,-6.21119
block_1,11638,9,15889,1,-53.6897,2.30566,8.73433,-53.6897,-5.43944
block_1,11639,9,15890,1,-53.4189,2.6027,7.86445,-53.4189,-5.41664
block_1,11640,9,15891,1,-63.834,1.46037,9.74943,-63.834,-4.61507
block_1,11641,9,15892,1,-63.511,1.95345,9.03401,-63.511,-4.71162
block_1,11642,9,15893,1,-73.4454,1.49589,9.08952,-73.4454,-4.0561
block_1,11643,9,15894,1,-73.0658,2.03771,8.43919,-73.0658,-4.10715
block_1,11644,9,15895,1,-63.1887,2.37167,8.27089,-63.1887,-4.73577
block_1,11645,9,15896,1,-62.8677,2.7115,7.47171,-62.8677,-4.68479
block_1,11646,9,15897,1,-72.6896,2.50205,7.74567,-72.6896,-4.09321
block_1,11647,9,15898,1,-72.3176,2.88653,7.0171,-72.3176,-4.01412
block_1,11648,9,15899,1,-88.6949,-8.9469,11.7555,-88.6949,-1.76031
block_1,11649,9,15900,1,-88.1977,-7.97928,11.7004,-88.1977,-1.87223
block_1,11650,9,15901,1,-99.094,-9.86129,10.6353,-99.094,-1.75206
block_1,11651,9,15902,1,-98.5284,-8.77811,10.5822,-98.5284,-1.84018
block_1,11652,9,15903,1,-87.7047,-7.01401,11.6155,-87.7047,-2.00179
block_1,11653,9,15904,1,-87.2163,-6.05325,11.4962,-87.2163,-2.14862
block_1,11654,9,15905,1,-97.9667,-7.70083,10.5014,-97.9667,-1.94204
block_1,11655,9,15906,1,-97.4096,-6.63223,10.3886,-97.4096,-2.05725
block_1,11656,9,15907,1,-109.496,-10.7614,9.38608,-109.496,-1.74303
block_1,11657,9,15908,1,-108.861,-9.5589,9.33779,-108.861,-1.8091
block_1,11658,9,15909,1,-119.901,-11.6461,8.0044,-119.901,-1.73477
block_1,11659,9,15910,1,-119.196,-10.3197,7.96306,-119.196,-1.78108
block_1,11660,9,15911,1,-108.23,-8.3655,9.26414,-108.23,-1.88545
block_1,11661,9,15912,1,-107.604,-7.18457,9.16159,-107.604,-1.97176
block_1,11662,9,15913,1,-118.496,-9.00498,7.89945,-118.496,-1.83464
block_1,11663,9,15914,1,-117.799,-7.70609,7.81053,-117.799,-1.89522
block_1,11664,9,15915,1,-86.7328,-5.09987,11.338,-86.7328,-2.31137
block_1,11665,9,15916,1,-86.2546,-4.15757,11.1366,-86.2546,-2.48746
block_1,11666,9,15917,1,-96.8577,-5.57574,10.24,-96.8577,-2.18467
block_1,11667,9,15918,1,-96.3115,-4.53545,10.052,-96.3115,-2.32216
block_1,11668,9,15919,1,-85.7819,-3.23103,10.8885,-85.7819,-2.67292
block_1,11669,9,15920,1,-85.3148,-2.32596,10.5909,-85.3148,-2.86215
block_1,11670,9,15921,1,-95.7715,-3.51624,9.82196,-95.7715,-2.46646
block_1,11671,9,15922,1,-95.238,-2.5238,9.54798,-95.238,-2.61298
block_1,11672,9,15923,1,-106.983,-6.02009,9.02678,-106.983,-2.06712
block_1,11673,9,15924,1,-106.368,-4.87663,8.8568,-106.368,-2.1699
block_1,11674,9,15925,1,-117.109,-6.42764,7.69342,-117.109,-1.96219
block_1,11675,9,15926,1,-116.425,-5.17474,7.54569,-116.425,-2.0344
block_1,11676,9,15927,1,-105.761,-3.75931,8.64946,-105.761,-2.27759
block_1,11677,9,15928,1,-105.161,-2.67384,8.40359,-105.161,-2.38665
block_1,11678,9,15929,1,-115.749,-3.95295,7.36558,-115.749,-2.11008
block_1,11679,9,15930,1,-115.082,-2.76818,7.15231,-115.082,-2.18673
block_1,11680,9,15931,1,-130.31,-12.515,6.48582,-130.31,-1.72842
block_1,11681,9,15932,1,-129.535,-11.0589,6.45314,-129.535,-1.75779
block_1,11682,9,15933,1,-140.725,-13.3682,4.82509,-140.725,-1.72458
block_1,11683,9,15934,1,-139.879,-11.7757,4.80213,-139.879,-1.7404
block_1,11684,9,15935,1,-128.764,-9.61658,6.40191,-128.764,-1.79183
block_1,11685,9,15936,1,-127.997,-8.19287,6.32959,-127.997,-1.8304
block_1,11686,9,15937,1,-139.035,-10.1982,4.76501,-139.035,-1.75879
block_1,11687,9,15938,1,-138.197,-8.64138,4.71174,-138.197,-1.77968
block_1,11688,9,15939,1,-151.147,-14.2069,3.01609,-151.147,-1.72319
block_1,11689,9,15940,1,-150.228,-12.4701,3.00307,-150.228,-1.72941
block_1,11690,9,15941,1,-161.576,-15.0336,1.0518,-161.576,-1.72329
block_1,11691,9,15942,1,-160.583,-13.1433,1.04786,-160.583,-1.72446
block_1,11692,9,15943,1,-149.311,-10.7485,2.981,-149.311,-1.73667
block_1,11693,9,15944,1,-148.399,-9.04871,2.94855,-148.399,-1.74495
block_1,11694,9,15945,1,-159.592,-11.2673,1.04073,-159.592,-1.72583
block_1,11695,9,15946,1,-158.605,-9.41289,1.02993,-158.605,-1.7274
block_1,11696,9,15947,1,-127.236,-6.79314,6.23377,-127.236,-1.87312
block_1,11697,9,15948,1,-126.482,-5.42327,6.11243,-126.482,-1.91926
block_1,11698,9,15949,1,-137.364,-7.11155,4.64043,-137.364,-1.80289
block_1,11699,9,15950,1,-136.539,-5.61553,4.54946,-136.539,-1.82804
block_1,11700,9,15951,1,-125.737,-4.08947,5.96411,-125.737,-1.96774
block_1,11701,9,15952,1,-125.002,-2.79816,5.78819,-125.002,-2.01699
block_1,11702,9,15953,1,-135.723,-4.16056,4.43764,-135.723,-1.85458
block_1,11703,9,15954,1,-134.919,-2.754,4.30438,-134.919,-1.88167
block_1,11704,9,15955,1,-147.493,-7.37813,2.90444,-147.493,-1.75418
block_1,11705,9,15956,1,-146.595,-5.74479,2.84757,-146.595,-1.76422
block_1,11706,9,15957,1,-157.624,-7.58879,1.01496,-157.624,-1.72915
block_1,11707,9,15958,1,-156.652,-5.80452,0.995413,-156.652,-1.73107
block_1,11708,9,15959,1,-145.708,-4.15732,2.77705,-145.708,-1.77487
block_1,11709,9,15960,1,-144.834,-2.62459,2.69237,-144.834,-1.78584
block_1,11710,9,15961,1,-155.691,-4.07044,0.970919,-155.691,-1.73311
block_1,11711,9,15962,1,-154.744,-2.39747,0.941242,-154.744,-1.73522
block_1,11712,9,15963,1,-84.8531,-1.44926,10.2424,-84.8531,-3.0478
block_1,11713,9,15964,1,-84.3968,-0.60902,9.84312,-84.3968,-3.22076
block_1,11714,9,15965,1,-94.7112,-1.56468,9.22962,-94.7112,-2.75564
block_1,11715,9,15966,1,-94.1912,-0.6464,8.86794,-94.1912,-2.88664
block_1,11716,9,15967,1,-83.9457,0.185483,9.39444,-83.9457,-3.37026
block_1,11717,9,15968,1,-83.4994,0.924013,8.89876,-83.4994,-3.48445
block_1,11718,9,15969,1,-93.6778,0.22235,8.46546,-93.6778,-2.99634
block_1,11719,9,15970,1,-93.1709,1.0316,8.02549,-93.1709,-3.07328
block_1,11720,9,15971,1,-104.569,-1.62647,8.11941,-104.569,-2.49231
block_1,11721,9,15972,1,-103.985,-0.624085,7.79875,-103.985,-2.58827
block_1,11722,9,15973,1,-114.424,-1.62653,6.9064,-114.424,-2.26094
block_1,11723,9,15974,1,-113.777,-0.534242,6.63013,-113.777,-2.32799
block_1,11724,9,15975,1,-103.409,0.325605,7.44525,-103.409,-2.66617
block_1,11725,9,15976,1,-102.842,1.21323,7.06374,-102.842,-2.71489
block_1,11726,9,15977,1,-113.139,0.502065,6.32778,-113.139,-2.38137
block_1,11727,9,15978,1,-112.512,1.47504,6.00609,-112.512,-2.41111
block_1,11728,9,15979,1,-83.0579,1.59612,8.35878,-83.0579,-3.55169
block_1,11729,9,15980,1,-82.6213,2.19253,7.77698,-82.6213,-3.56267
block_1,11730,9,15981,1,-92.6702,1.77037,7.55083,-92.6702,-3.10521
block_1,11731,9,15982,1,-92.1762,2.42815,7.04231,-92.1762,-3.08165
block_1,11732,9,15983,1,-82.1904,2.70706,7.15592,-82.1904,-3.51291
block_1,11733,9,15984,1,-81.7664,3.13811,6.49971,-81.7664,-3.40465
block_1,11734,9,15985,1,-91.6896,2.99766,6.49859,-91.6896,-2.99778
block_1,11735,9,15986,1,-91.2122,3.47752,5.91852,-91.2122,-2.85794
block_1,11736,9,15987,1,-102.282,2.02726,6.65829,-102.282,-2.72058
block_1,11737,9,15988,1,-101.73,2.75479,6.22898,-101.73,-2.66918
block_1,11738,9,15989,1,-111.893,2.37349,5.67238,-111.893,-2.40154
block_1,11739,9,15990,1,-111.282,3.18155,5.3286,-111.282,-2.33203
block_1,11740,9,15991,1,-101.186,3.38548,5.7699,-101.186,-2.55288
block_1,11741,9,15992,1,-100.653,3.91717,5.27231,-100.653,-2.37728
block_1,11742,9,15993,1,-110.679,3.88261,4.96455,-110.679,-2.18619
block_1,11743,9,15994,1,-110.087,4.47049,4.55941,-110.087,-1.96823
block_1,11744,9,15995,1,-124.278,-1.55569,5.58521,-124.278,-2.06484
block_1,11745,9,15996,1,-123.566,-0.368108,5.35724,-123.566,-2.10835
block_1,11746,9,15997,1,-134.128,-1.4031,4.14995,-134.128,-1.90827
block_1,11747,9,15998,1,-133.352,-0.114384,3.97587,-133.352,-1.9327
block_1,11748,9,15999,1,-122.867,0.759203,5.10867,-122.867,-2.14289
block_1,11749,9,16000,1,-122.18,1.82093,4.84655,-122.18,-2.16162
block_1,11750,9,16001,1,-132.591,1.1067,3.78533,-132.591,-1.953
block_1,11751,9,16002,1,-131.845,2.25718,3.58482,-131.845,-1.9641
block_1,11752,9,16003,1,-143.974,-1.15543,2.59353,-143.974,-1.79668
block_1,11753,9,16004,1,-143.132,0.241852,2.48118,-143.132,-1.80701
block_1,11754,9,16005,1,-153.814,-0.796864,0.906291,-153.814,-1.73737
block_1,11755,9,16006,1,-152.904,0.720313,0.866177,-152.904,-1.7393
block_1,11756,9,16007,1,-142.309,1.56045,2.35709,-142.309,-1.81554
block_1,11757,9,16008,1,-141.505,2.79576,2.22435,-141.505,-1.82248
block_1,11758,9,16009,1,-152.018,2.14363,0.821245,-152.018,-1.7415
block_1,11759,9,16010,1,-151.156,3.46443,0.772333,-151.156,-1.74181
block_1,11760,9,16011,1,-121.503,2.81175,4.58318,-121.503,-2.14986
block_1,11761,9,16012,1,-120.833,3.71383,4.32928,-120.833,-2.07787
block_1,11762,9,16013,1,-131.113,3.33546,3.3844,-131.113,-1.96039
block_1,11763,9,16014,1,-130.388,4.34541,3.21228,-130.388,-1.91182
block_1,11764,9,16015,1,-120.169,4.49967,4.07361,-120.169,-1.91006
block_1,11765,9,16016,1,-119.514,5.15283,3.77713,-119.514,-1.63961
block_1,11766,9,16017,1,-129.661,5.24297,3.08111,-129.661,-1.74306
block_1,11767,9,16018,1,-128.934,5.97601,2.91924,-128.934,-1.40647
block_1,11768,9,16019,1,-140.72,3.94942,2.09089,-140.72,-1.81978
block_1,11769,9,16020,1,-139.953,5.02963,1.9673,-139.953,-1.81527
block_1,11770,9,16021,1,-150.323,4.67661,0.720473,-150.323,-1.74643
block_1,11771,9,16022,1,-149.511,5.78272,0.670896,-149.511,-1.73166
block_1,11772,9,16023,1,-139.169,6.07947,1.93801,-139.169,-1.71115
block_1,11773,9,16024,1,-138.35,6.9666,1.97268,-138.35,-1.30011
block_1,11774,9,16025,1,-148.737,6.80429,0.620558,-148.737,-1.77882
block_1,11775,9,16026,1,-147.827,7.91267,0.807011,-147.827,-1.36846
block_2,0,9,16027,2,-247.987,-93.9355,-91.8458,81.6839,-177.966
block_2,1,9,16028,2,-123.181,-5.86487,-33.4937,110.393,-112.903
block_2,2,9,16029,2,-26.8402,-23.976,-1.88771,149.04,23.8211
block_2,3,9,16030,2,-88.5028,-46.8614,-42.8301,117.59,-41.2491
block_2,4,9,16031,2,-79.927,-2.66285,-11.539,110.221,-78.1459
block_2,5,9,16032,2,-59.7262,0.795692,-5.49666,106.169,-59.2042
block_2,6,9,16033,2,-64.4114,-13.551,-27.8399,114.45,-48.7356
block_2,7,9,16034,2,-50.9556,-6.8449,-16.6911,107.567,-44.5101
block_2,8,9,16035,2,-14.6146,-11.4136,-2.33745,143.775,-7.62173
block_2,9,9,16036,2,-27.9431,-24.4181,-9.5705,132.738,-0.96724
block_2,10,9,16037,2,-6.68415,-6.43261,-0.420719,146.847,1.73035
block_2,11,9,16038,2,-17.9505,-16.2002,-4.95566,133.588,-3.74881
block_2,12,9,16039,2,-43.5888,-24.7018,-21.1811,118.598,-19.1914
block_2,13,9,16040,2,-38.4426,-13.1455,-17.7124,110.263,-25.8465
block_2,14,9,16041,2,-23.3199,-18.2118,-9.39637,123.047,-5.99866
block_2,15,9,16042,2,-27.226,-15.9216,-12.6699,112.408,-12.8222
block_2,16,9,16043,2,-47.3617,1.80459,-1.58434,99.7491,-47.304
block_2,17,9,16044,2,-39.16,2.44272,0.725336,92.3061,-39.1441
block_2,18,9,16045,2,-41.6854,-2.45142,-10.1202,100.42,-39.0255
block_2,19,9,16046,2,-35.0499,-0.439534,-5.70931,92.5457,-34.0857
block_2,20,9,16047,2,-33.3577,2.77419,2.37549,84.2366,-33.1995
block_2,21,9,16048,2,-29.0606,2.96964,3.60199,75.7869,-28.6538
block_2,22,9,16049,2,-30.1367,0.777607,-2.67215,84.2892,-29.8938
block_2,23,9,16050,2,-26.3982,1.49689,-0.456661,75.7415,-26.3831
block_2,24,9,16051,2,-33.817,-7.81024,-13.0737,101.697,-27.1488
block_2,25,9,16052,2,-29.4928,-4.18757,-9.05998,93.2635,-26.2016
block_2,26,9,16053,2,-25.7318,-10.8737,-11.5607,103.191,-16.6293
block_2,27,9,16054,2,-23.6738,-7.31168,-9.35252,94.1383,-18.2608
block_2,28,9,16055,2,-25.9364,-2.02485,-5.85678,84.6607,-24.4751
block_2,29,9,16056,2,-23.0403,-0.607225,-3.3454,75.9298,-22.5247
block_2,30,9,16057,2,-21.451,-4.63932,-6.9851,85.2065,-18.5079
block_2,31,9,16058,2,-19.4391,-2.7684,-4.82625,76.2593,-18.015
block_2,32,9,16059,2,-4.84334,-4.73069,-0.130967,146.165,-0.690076
block_2,33,9,16060,2,-11.276,-10.9249,-1.91624,135.235,-0.482112
block_2,34,9,16061,2,-3.86537,-3.83993,0.0879686,146.099,0.135049
block_2,35,9,16062,2,-8.38233,-8.2975,-0.804586,135.385,-0.601159
block_2,36,9,16063,2,-16.3005,-14.1941,-5.17337,124.211,-3.51563
block_2,37,9,16064,2,-18.385,-13.7969,-7.41996,114.147,-6.2971
block_2,38,9,16065,2,-11.6085,-10.9531,-2.56736,125.068,-1.5181
block_2,39,9,16066,2,-13.7064,-11.7413,-4.43841,114.922,-3.57551
block_2,40,9,16067,2,-3.50172,-3.48933,0.163367,145.642,-0.0755719
block_2,41,9,16068,2,-6.6373,-6.63247,-0.172494,135.436,-0.182381
block_2,42,9,16069,2,-3.35007,-3.33789,0.202197,145.214,0.00919812
block_2,43,9,16070,2,-5.64718,-5.64296,0.141967,135.233,-0.13142
block_2,44,9,16071,2,-9.0559,-8.86465,-1.23959,125.299,-0.906922
block_2,45,9,16072,2,-10.5706,-9.84122,-2.48491,115.383,-1.97473
block_2,46,9,16073,2,-7.4199,-7.38743,-0.449796,125.34,-0.469656
block_2,47,9,16074,2,-8.61428,-8.37851,-1.29701,115.541,-1.17464
block_2,48,9,16075,2,-19.2448,-11.7235,-8.43136,104.335,-9.68236
block_2,49,9,16076,2,-18.4678,-8.89141,-7.84851,94.9794,-11.96
block_2,50,9,16077,2,-14.4255,-10.8753,-5.54613,105.17,-5.66349
block_2,51,9,16078,2,-14.4125,-9.25776,-5.85973,95.6177,-7.66503
block_2,52,9,16079,2,-17.291,-6.47734,-6.5931,85.7686,-13.2183
block_2,53,9,16080,2,-15.9953,-4.51262,-5.10951,76.6412,-13.6848
block_2,54,9,16081,2,-13.8004,-7.37946,-5.44269,86.2608,-9.12279
block_2,55,9,16082,2,-12.9915,-5.65269,-4.62666,77.0009,-10.0265
block_2,56,9,16083,2,-11.3402,-9.74312,-3.52153,105.627,-3.44637
block_2,57,9,16084,2,-11.4266,-8.85189,-4.06352,96.0636,-4.9084
block_2,58,9,16085,2,-9.22387,-8.58661,-2.09861,105.875,-2.10484
block_2,59,9,16086,2,-9.36659,-8.18156,-2.67421,96.3221,-3.17225
block_2,60,9,16087,2,-11.1141,-7.58801,-4.12532,86.6296,-6.20423
block_2,61,9,16088,2,-10.5572,-6.2137,-3.79366,77.2993,-7.17995
block_2,62,9,16089,2,-9.14528,-7.36455,-2.93242,86.879,-4.19462
block_2,63,9,16090,2,-8.71307,-6.34877,-2.89598,77.5181,-5.07256
block_2,64,9,16091,2,-25.77,3.07088,4.56283,67.0822,-25.0464
block_2,65,9,16092,2,-23.1787,3.11052,5.33217,58.2006,-22.0952
block_2,66,9,16093,2,-23.4835,1.95062,1.21354,66.9938,-23.4201
block_2,67,9,16094,2,-21.1633,2.23552,2.5081,58.0985,-20.8899
block_2,68,9,16095,2,-21.0882,3.10594,5.9553,49.1913,-19.6202
block_2,69,9,16096,2,-19.3629,3.07014,6.45902,40.0871,-17.5009
block_2,70,9,16097,2,-19.2783,2.41241,3.52837,49.0935,-18.7002
block_2,71,9,16098,2,-17.7151,2.51685,4.33919,40.0049,-16.7805
block_2,72,9,16099,2,-20.6906,0.3279,-1.36512,67.0767,-20.5903
block_2,73,9,16100,2,-18.7703,0.964436,0.209304,58.1258,-18.7591
block_2,74,9,16101,2,-17.6942,-1.42877,-2.9624,67.2769,-17.1356
block_2,75,9,16102,2,-16.2116,-0.465945,-1.38997,58.2474,-16.0744
block_2,76,9,16103,2,-17.1826,1.40313,1.47096,49.0948,-17.0587
block_2,77,9,16104,2,-15.8489,1.70928,2.48616,39.9997,-15.4903
block_2,78,9,16105,2,-14.9538,0.236647,-0.077514,49.1725,-14.9416
block_2,79,9,16106,2,-13.8775,0.755933,1.01073,40.056,-13.7976
block_2,80,9,16107,2,-17.9069,3.01308,6.86057,30.911,-15.6545
block_2,81,9,16108,2,-16.6499,2.94331,7.17128,21.6793,-14.0223
block_2,82,9,16109,2,-16.3906,2.57287,4.98297,30.8517,-15.0774
block_2,83,9,16110,2,-15.2426,2.59758,5.48844,21.648,-13.5502
block_2,84,9,16111,2,-15.5391,2.86854,7.39889,12.4042,-12.562
block_2,85,9,16112,2,-14.5339,2.7961,7.54888,3.09514,-11.2423
block_2,86,9,16113,2,-14.2236,2.60425,5.87559,12.4045,-12.1681
block_2,87,9,16114,2,-13.2969,2.60384,6.15867,3.12945,-10.9073
block_2,88,9,16115,2,-14.7067,1.92514,3.3024,30.8529,-14.045
block_2,89,9,16116,2,-13.7068,2.08014,3.95392,21.6643,-12.7107
block_2,90,9,16117,2,-12.9413,1.14613,1.90703,30.9036,-12.6741
block_2,91,9,16118,2,-12.1092,1.4457,2.63832,21.7205,-11.5874
block_2,92,9,16119,2,-12.81,2.19575,4.46574,12.4422,-11.4754
block_2,93,9,16120,2,-11.9857,2.28856,4.85638,3.1931,-10.3279
block_2,94,9,16121,2,-11.3513,1.68313,3.22636,12.5118,-10.5448
block_2,95,9,16122,2,-10.6433,1.88022,3.68853,3.28182,-9.54937
block_2,96,9,16123,2,-14.7757,-2.99201,-3.63988,67.534,-13.6243
block_2,97,9,16124,2,-13.6876,-1.82095,-2.28643,58.4243,-13.2261
block_2,98,9,16125,2,-12.1456,-4.16622,-3.63262,67.7979,-10.4554
block_2,99,9,16126,2,-11.3583,-2.93792,-2.60345,58.6198,-10.5246
block_2,100,9,16127,2,-12.7386,-0.920505,-1.08688,49.2994,-12.6215
block_2,101,9,16128,2,-11.9106,-0.223001,-0.0478796,40.1551,-11.8958
block_2,102,9,16129,2,-10.6578,-1.9369,-1.61745,49.4498,-10.3342
block_2,103,9,16130,2,-10.0409,-1.12463,-0.714728,40.2781,-9.96341
block_2,104,9,16131,2,-9.93217,-4.91044,-3.21861,68.0328,-7.81949
block_2,105,9,16132,2,-9.33102,-3.74533,-2.51906,58.8063,-8.15555
block_2,106,9,16133,2,-8.18652,-5.27887,-2.62671,68.2202,-5.74131
block_2,107,9,16134,2,-7.66832,-4.24909,-2.20442,58.9657,-6.1897
block_2,108,9,16135,2,-8.79833,-2.73812,-1.78044,49.6018,-8.24299
block_2,109,9,16136,2,-8.33729,-1.88023,-1.05735,40.4084,-8.13664
block_2,110,9,16137,2,-7.21605,-3.30367,-1.69797,49.7402,-6.43314
block_2,111,9,16138,2,-6.84543,-2.45865,-1.1605,40.5331,-6.50034
block_2,112,9,16139,2,-11.1781,0.323495,0.837093,30.9906,-11.1043
block_2,113,9,16140,2,-10.5152,0.759167,1.57946,21.8069,-10.2823
block_2,114,9,16141,2,-9.48937,-0.46262,0.087,31.1,-9.47077
block_2,115,9,16142,2,-8.98204,0.0828226,0.782249,21.9131,-8.89863
block_2,116,9,16143,2,-9.89928,1.11511,2.19166,12.606,-9.45245
block_2,117,9,16144,2,-9.31147,1.41588,2.6855,3.39024,-8.62906
block_2,118,9,16145,2,-8.49991,0.540276,1.37194,12.7171,-8.27722
block_2,119,9,16146,2,-8.0276,0.933683,1.86013,3.51244,-7.62806
block_2,120,9,16147,2,-7.93028,-1.15275,-0.3827,31.2189,-7.88452
block_2,121,9,16148,2,-7.55442,-0.533328,0.225165,22.0294,-7.52566
block_2,122,9,16149,2,-6.53812,-1.71281,-0.629463,31.3371,-6.42295
block_2,123,9,16150,2,-6.26349,-1.05639,-0.129846,22.1473,-6.23096
block_2,124,9,16151,2,-7.18993,8.27832e-06,0.757065,12.8376,-7.0908
block_2,125,9,16152,2,-6.82209,0.467598,1.20946,3.64256,-6.60367
block_2,126,9,16153,2,-5.99561,-0.475762,0.322582,12.9606,-5.95062
block_2,127,9,16154,2,-5.71715,0.043978,0.718513,3.77526,-5.60401
block_2,128,9,16155,2,-3.32015,-3.30406,0.215175,144.733,-0.00738936
block_2,129,9,16156,2,-5.01965,-4.99706,0.315294,134.955,-0.0518276
block_2,130,9,16157,2,-3.33772,-3.31776,0.216247,144.251,0.00321974
block_2,131,9,16158,2,-4.61307,-4.57214,0.403914,134.613,-0.0241427
block_2,132,9,16159,2,-6.37078,-6.36576,0.0049108,125.214,-0.269612
block_2,133,9,16160,2,-7.29181,-7.23827,-0.540121,115.545,-0.684817
block_2,134,9,16161,2,-5.6485,-5.62779,0.275191,125.004,-0.139213
block_2,135,9,16162,2,-6.3746,-6.36371,-0.0642587,115.436,-0.401186
block_2,136,9,16163,2,-3.37295,-3.34992,0.21026,143.763,0.00282529
block_2,137,9,16164,2,-4.32981,-4.27563,0.445124,134.241,-0.0023206
block_2,138,9,16165,2,-3.4061,-3.38081,0.200461,143.28,0.00459646
block_2,139,9,16166,2,-4.12024,-4.05819,0.457448,133.85,0.00879602
block_2,140,9,16167,2,-5.12988,-5.08407,0.430824,124.734,-0.06554
block_2,141,9,16168,2,-5.70238,-5.68083,0.235742,115.257,-0.221773
block_2,142,9,16169,2,-4.73598,-4.66817,0.515858,124.43,-0.0185445
block_2,143,9,16170,2,-5.18701,-5.13936,0.420152,115.029,-0.109293
block_2,144,9,16171,2,-7.7947,-7.57843,-1.13972,105.953,-1.30835
block_2,145,9,16172,2,-7.92095,-7.43768,-1.64124,96.448,-2.05007
block_2,146,9,16173,2,-6.78047,-6.72511,-0.491271,105.924,-0.804678
block_2,147,9,16174,2,-6.89489,-6.72828,-0.899502,96.4698,-1.32184
block_2,148,9,16175,2,-7.75548,-6.93852,-1.96303,87.0197,-2.82765
block_2,149,9,16176,2,-7.3833,-6.2095,-2.07796,77.6596,-3.54894
block_2,150,9,16177,2,-6.76323,-6.43182,-1.21253,87.0746,-1.89228
block_2,151,9,16178,2,-6.44587,-5.91854,-1.39405,77.7318,-2.45882
block_2,152,9,16179,2,-6.0326,-6.01699,-0.058829,105.816,-0.48492
block_2,153,9,16180,2,-6.13197,-6.08558,-0.374595,96.417,-0.837904
block_2,154,9,16181,2,-5.45295,-5.42754,0.226197,105.654,-0.275488
block_2,155,9,16182,2,-5.53736,-5.51805,-0.00993965,96.3087,-0.513427
block_2,156,9,16183,2,-6.03005,-5.91513,-0.650972,87.0612,-1.24982
block_2,157,9,16184,2,-5.76461,-5.55337,-0.849489,77.7464,-1.67998
block_2,158,9,16185,2,-5.45723,-5.42051,-0.24028,86.9955,-0.804508
block_2,159,9,16186,2,-5.23794,-5.16197,-0.430653,77.7139,-1.12347
block_2,160,9,16187,2,-3.427,-3.40008,0.188587,142.801,0.00488894
block_2,161,9,16188,2,-3.95219,-3.88649,0.452314,133.45,0.0159543
block_2,162,9,16189,2,-3.42963,-3.40149,0.175725,142.33,0.00517628
block_2,163,9,16190,2,-3.80642,-3.7399,0.436521,133.045,0.0198443
block_2,164,9,16191,2,-4.42147,-4.33815,0.555684,124.103,0.0101676
block_2,165,9,16192,2,-4.77282,-4.69937,0.528393,114.77,-0.0365493
block_2,166,9,16193,2,-4.15725,-4.06474,0.566464,123.763,0.0281185
block_2,167,9,16194,2,-4.42581,-4.3323,0.585559,114.489,0.0102455
block_2,168,9,16195,2,-3.41091,-3.38177,0.162548,141.867,0.00516293
block_2,169,9,16196,2,-3.67036,-3.60476,0.414402,132.64,0.021916
block_2,170,9,16197,2,-3.36943,-3.3394,0.149484,141.412,0.0050548
block_2,171,9,16198,2,-3.53598,-3.4722,0.388743,132.237,0.0227211
block_2,172,9,16199,2,-3.92478,-3.8281,0.558487,123.414,0.0388858
block_2,173,9,16200,2,-4.12388,-4.01699,0.60839,114.194,0.0402484
block_2,174,9,16201,2,-3.71171,-3.6144,0.538551,123.062,0.0450109
block_2,175,9,16202,2,-3.85245,-3.73805,0.608136,113.889,0.0589812
block_2,176,9,16203,2,-4.98363,-4.93268,0.409003,105.454,-0.137436
block_2,177,9,16204,2,-5.05138,-5.02009,0.238322,96.1599,-0.293075
block_2,178,9,16205,2,-4.58819,-4.51088,0.520871,105.227,-0.0455496
block_2,179,9,16206,2,-4.63819,-4.58237,0.402118,95.9814,-0.142838
block_2,180,9,16207,2,-4.98558,-4.96163,0.0532428,86.8897,-0.494355
block_2,181,9,16208,2,-4.80271,-4.77078,-0.117172,77.6439,-0.725103
block_2,182,9,16209,2,-4.57996,-4.5415,0.257636,86.7535,-0.277491
block_2,183,9,16210,2,-4.42402,-4.39363,0.111237,77.5443,-0.439912
block_2,184,9,16211,2,-4.24366,-4.14485,0.583246,104.982,0.015386
block_2,185,9,16212,2,-4.27543,-4.19454,0.50487,95.7813,-0.0403217
block_2,186,9,16213,2,-3.93486,-3.82081,0.611126,104.723,0.0553775
block_2,187,9,16214,2,-3.94877,-3.84708,0.563602,95.5655,0.0291552
block_2,188,9,16215,2,-4.21971,-4.15832,0.394923,86.5942,-0.125956
block_2,189,9,16216,2,-4.08272,-4.0366,0.272634,77.4216,-0.236075
block_2,190,9,16217,2,-3.89214,-3.80813,0.482135,86.4177,-0.0205535
block_2,191,9,16218,2,-3.7681,-3.70146,0.382085,77.2809,-0.0910888
block_2,192,9,16219,2,-6.901,-5.36797,-2.0069,68.3535,-4.15658
block_2,193,9,16220,2,-6.39732,-4.49729,-1.79059,59.0892,-4.61852
block_2,194,9,16221,2,-6.00443,-5.26915,-1.43847,68.4345,-2.97027
block_2,195,9,16222,2,-5.50512,-4.55254,-1.36264,59.1741,-3.39345
block_2,196,9,16223,2,-5.94931,-3.65151,-1.47614,49.8554,-4.92787
block_2,197,9,16224,2,-5.59647,-2.85919,-1.10595,40.6435,-5.09282
block_2,198,9,16225,2,-5.02218,-3.81875,-1.1936,49.943,-3.71082
block_2,199,9,16226,2,-4.62641,-3.10064,-0.961098,40.7344,-3.91835
block_2,200,9,16227,2,-5.37828,-5.05551,-0.95452,68.4683,-2.09115
block_2,201,9,16228,2,-4.91397,-4.47277,-0.967606,59.2219,-2.45314
block_2,202,9,16229,2,-4.90853,-4.77779,-0.561575,68.4618,-1.44291
block_2,203,9,16230,2,-4.49936,-4.30482,-0.626875,59.2362,-1.7388
block_2,204,9,16231,2,-4.4173,-3.84748,-0.901735,50.002,-2.74626
block_2,205,9,16232,2,-3.95713,-3.21069,-0.775295,40.8035,-2.9604
block_2,206,9,16233,2,-4.04051,-3.77616,-0.630158,50.0337,-1.99262
block_2,207,9,16234,2,-3.56238,-3.21861,-0.581254,40.8507,-2.19242
block_2,208,9,16235,2,-5.33568,-2.13199,-0.714418,31.4467,-5.12973
block_2,209,9,16236,2,-5.12804,-1.47067,-0.327416,22.2603,-5.058
block_2,210,9,16237,2,-4.34201,-2.41658,-0.692564,31.5427,-4.02093
block_2,211,9,16238,2,-4.15831,-1.77457,-0.411007,22.3636,-4.02872
block_2,212,9,16239,2,-4.93327,-0.869631,0.0365654,13.0808,-4.89713
block_2,213,9,16240,2,-4.72704,-0.319871,0.364937,3.90599,-4.66521
block_2,214,9,16241,2,-4.01154,-1.17541,-0.134522,13.1938,-3.95433
block_2,215,9,16242,2,-3.85934,-0.615347,0.12335,4.03119,-3.81105
block_2,216,9,16243,2,-3.61058,-2.58299,-0.607992,31.6221,-3.09334
block_2,217,9,16244,2,-3.36413,-1.97621,-0.418203,22.4543,-3.14841
block_2,218,9,16245,2,-3.13317,-2.6519,-0.492969,31.684,-2.33226
block_2,219,9,16246,2,-2.84506,-2.08913,-0.378761,22.5308,-2.41111
block_2,220,9,16247,2,-3.23498,-1.39546,-0.221707,13.297,-3.13246
block_2,221,9,16248,2,-3.11752,-0.841056,-0.0312685,4.14831,-3.05421
block_2,222,9,16249,2,-2.61011,-1.53776,-0.251244,13.3887,-2.43154
block_2,223,9,16250,2,-2.50512,-1.00083,-0.121385,4.25567,-2.39853
block_2,224,9,16251,2,-4.52319,-4.46952,-0.253641,68.4216,-0.966483
block_2,225,9,16252,2,-4.16886,-4.08313,-0.346327,59.2211,-1.2
block_2,226,9,16253,2,-4.18451,-4.15148,-0.0194797,68.3538,-0.617283
block_2,227,9,16254,2,-3.87734,-3.83177,-0.123591,59.1812,-0.796051
block_2,228,9,16255,2,-3.76196,-3.63639,-0.393347,50.0404,-1.41006
block_2,229,9,16256,2,-3.32513,-3.15099,-0.398534,40.877,-1.58503
block_2,230,9,16257,2,-3.51908,-3.45235,-0.19622,50.0251,-0.96371
block_2,231,9,16258,2,-3.12674,-3.02999,-0.237347,40.8841,-1.11005
block_2,232,9,16259,2,-3.87408,-3.83593,0.153291,68.2637,-0.362322
block_2,233,9,16260,2,-3.6053,-3.56686,0.0476104,59.1204,-0.494998
block_2,234,9,16261,2,-3.58294,-3.52962,0.276393,68.1558,-0.177206
block_2,235,9,16262,2,-3.34487,-3.29875,0.174904,59.0424,-0.272192
block_2,236,9,16263,2,-3.28873,-3.24174,-0.0381849,49.9908,-0.624505
block_2,237,9,16264,2,-2.9372,-2.87309,-0.101758,40.8742,-0.742372
block_2,238,9,16265,2,-3.06308,-3.01706,0.0842139,49.9405,-0.368897
block_2,239,9,16266,2,-2.74732,-2.69354,0.00791127,40.8494,-0.460586
block_2,240,9,16267,2,-2.88345,-2.64427,-0.369266,31.7285,-1.71756
block_2,241,9,16268,2,-2.51615,-2.1289,-0.314591,22.5928,-1.80422
block_2,242,9,16269,2,-2.71934,-2.57906,-0.250377,31.7564,-1.22768
block_2,243,9,16270,2,-2.32496,-2.11088,-0.240788,22.6405,-1.31212
block_2,244,9,16271,2,-2.25517,-1.6132,-0.243861,13.468,-1.84478
block_2,245,9,16272,2,-2.04295,-1.10174,-0.165823,4.3524,-1.84141
block_2,246,9,16273,2,-2.01003,-1.63362,-0.214994,13.5349,-1.36149
block_2,247,9,16274,2,-1.76581,-1.15247,-0.179504,4.43823,-1.3761
block_2,248,9,16275,2,-2.56468,-2.47231,-0.143794,31.7692,-0.841898
block_2,249,9,16276,2,-2.18921,-2.04897,-0.167058,22.6748,-0.918404
block_2,250,9,16277,2,-2.40817,-2.33694,-0.0529269,31.7684,-0.541533
block_2,251,9,16278,2,-2.05854,-1.95502,-0.0991184,22.6968,-0.607359
block_2,252,9,16279,2,-1.84232,-1.6105,-0.175533,13.5899,-0.969222
block_2,253,9,16280,2,-1.56894,-1.16208,-0.173709,4.51335,-0.993485
block_2,254,9,16281,2,-1.71773,-1.55417,-0.132749,13.6337,-0.655153
block_2,255,9,16282,2,-1.41949,-1.13922,-0.156609,4.57829,-0.683424
block_2,256,9,16283,2,-13.6027,2.73316,7.62517,-6.24073,-10.0398
block_2,257,9,16284,2,-15.5976,2.68687,7.63067,-15.5976,-8.93721
block_2,258,9,16285,2,-12.4336,2.60599,6.34808,-6.17043,-9.74963
block_2,259,9,16286,2,-15.4898,2.61954,6.45155,-15.4898,-8.68111
block_2,260,9,16287,2,-24.9706,2.66454,7.56759,-24.9706,-7.9213
block_2,261,9,16288,2,-34.3557,2.67371,7.4376,-34.3557,-6.98221
block_2,262,9,16289,2,-24.8241,2.65302,6.47499,-24.8241,-7.69094
block_2,263,9,16290,2,-34.1695,2.7148,6.42297,-34.1695,-6.77087
block_2,264,9,16291,2,-11.2095,2.37213,5.13977,-6.07755,-9.2587
block_2,265,9,16292,2,-15.3652,2.45808,5.32656,-15.3652,-8.25986
block_2,266,9,16293,2,-9.96575,2.0544,4.03866,-5.96537,-8.60134
block_2,267,9,16294,2,-15.2263,2.2202,4.28782,-15.2263,-7.69999
block_2,268,9,16295,2,-24.6658,2.55691,5.42504,-24.6658,-7.32489
block_2,269,9,16296,2,-33.976,2.67847,5.44171,-33.976,-6.44865
block_2,270,9,16297,2,-24.4976,2.39027,4.44493,-24.4976,-6.84411
block_2,271,9,16298,2,-33.7766,2.5761,4.51725,-33.7766,-6.03246
block_2,272,9,16299,2,-43.7496,2.72228,7.24202,-43.7496,-6.11263
block_2,273,9,16300,2,-53.1491,2.81858,6.98191,-53.1491,-5.30733
block_2,274,9,16301,2,-43.5228,2.8134,6.29908,-43.5228,-5.91473
block_2,275,9,16302,2,-52.8808,2.95761,6.10624,-52.8808,-5.11795
block_2,276,9,16303,2,-62.5514,2.9715,6.65812,-62.5514,-4.56275
block_2,277,9,16304,2,-71.9541,3.19062,6.27133,-71.9541,-3.87672
block_2,278,9,16305,2,-62.2408,3.15667,5.84681,-62.2408,-4.37731
block_2,279,9,16306,2,-71.6001,3.42042,5.52274,-71.6001,-3.69069
block_2,280,9,16307,2,-43.2926,2.83232,5.3818,-43.2926,-5.62715
block_2,281,9,16308,2,-52.613,3.02805,5.24956,-52.613,-4.85744
block_2,282,9,16309,2,-43.0605,2.78849,4.51076,-43.0605,-5.26398
block_2,283,9,16310,2,-52.3467,3.038,4.43039,-52.3467,-4.53794
block_2,284,9,16311,2,-61.9342,3.27554,5.04846,-61.9342,-4.13743
block_2,285,9,16312,2,-71.2538,3.58519,4.78134,-71.2538,-3.46576
block_2,286,9,16313,2,-61.6329,3.33528,4.2803,-61.6329,-3.85397
block_2,287,9,16314,2,-70.9164,3.69144,4.06391,-70.9164,-3.21217
block_2,288,9,16315,2,-8.73673,1.68139,3.07154,-5.83798,-7.82142
block_2,289,9,16316,2,-15.0762,1.92825,3.35896,-15.0762,-7.03551
block_2,290,9,16317,2,-7.71376,1.28323,2.25219,-5.69991,-6.96654
block_2,291,9,16318,2,-14.9186,1.60621,2.55388,-14.9186,-6.30377
block_2,292,9,16319,2,-24.3221,2.17081,3.55567,-24.3221,-6.2753
block_2,293,9,16320,2,-33.5734,2.42192,3.66846,-33.5734,-5.54354
block_2,294,9,16321,2,-24.142,1.91775,2.77086,-24.142,-5.64794
block_2,295,9,16322,2,-33.3685,2.23144,2.90847,-33.3685,-5.00526
block_2,296,9,16323,2,-7.08098,0.887747,1.58216,-5.55572,-6.08253
block_2,297,9,16324,2,-14.7568,1.27686,1.87692,-14.7568,-5.54145
block_2,298,9,16325,2,-6.49345,0.51768,1.05304,-5.40965,-5.20931
block_2,299,9,16326,2,-14.5944,0.959585,1.32419,-14.5944,-4.78139
block_2,300,9,16327,2,-23.9599,1.64973,2.09653,-23.9599,-4.99137
block_2,301,9,16328,2,-33.1641,2.01991,2.24436,-33.1641,-4.441
block_2,302,9,16329,2,-23.7786,1.38316,1.53195,-23.7786,-4.3324
block_2,303,9,16330,2,-32.962,1.80112,1.67756,-32.962,-3.87241
block_2,304,9,16331,2,-42.8279,2.69349,3.70315,-42.8279,-4.8423
block_2,305,9,16332,2,-52.0834,2.99696,3.66477,-52.0834,-4.17331
block_2,306,9,16333,2,-42.5965,2.55987,2.97167,-42.5965,-4.38061
block_2,307,9,16334,2,-51.8242,2.91506,2.96505,-51.8242,-3.77811
block_2,308,9,16335,2,-61.3377,3.34371,3.5577,-61.3377,-3.53827
block_2,309,9,16336,2,-70.5886,3.74546,3.38579,-70.5886,-2.93902
block_2,310,9,16337,2,-61.0496,3.30885,2.89289,-61.0496,-3.20142
block_2,311,9,16338,2,-70.271,3.75333,2.7592,-70.271,-2.65417
block_2,312,9,16339,2,-42.3679,2.40009,2.32405,-42.3679,-3.8974
block_2,313,9,16340,2,-51.5702,2.80237,2.33936,-51.5702,-3.36659
block_2,314,9,16341,2,-42.1436,2.22562,1.76316,-42.1436,-3.40985
block_2,315,9,16342,2,-51.3225,2.66838,1.79149,-51.3225,-2.95204
block_2,316,9,16343,2,-60.7694,3.2387,2.29416,-60.7694,-2.85394
block_2,317,9,16344,2,-69.964,3.7211,2.19247,-69.964,-2.36453
block_2,318,9,16345,2,-60.4975,3.14096,1.76585,-60.4975,-2.50552
block_2,319,9,16346,2,-69.6676,3.65492,1.69004,-69.6676,-2.07641
block_2,320,9,16347,2,-81.3545,3.48634,5.8221,-81.3545,-3.24828
block_2,321,9,16348,2,-90.7502,3.87007,5.31083,-90.7502,-2.6775
block_2,322,9,16349,2,-80.956,3.75956,5.13556,-80.956,-3.05679
block_2,323,9,16350,2,-90.3057,4.18584,4.68638,-90.3057,-2.47486
block_2,324,9,16351,2,-100.139,4.35443,4.73773,-100.139,-2.16517
block_2,325,9,16352,2,-109.517,4.95374,4.10262,-109.517,-1.71246
block_2,326,9,16353,2,-99.6461,4.71252,4.17559,-99.6461,-1.94433
block_2,327,9,16354,2,-108.973,5.35503,3.60233,-108.973,-1.46409
block_2,328,9,16355,2,-80.569,3.96824,4.4504,-80.569,-2.84169
block_2,329,9,16356,2,-89.8769,4.43719,4.05715,-89.8769,-2.26492
block_2,330,9,16357,2,-80.1947,4.1184,3.78402,-80.1947,-2.61309
block_2,331,9,16358,2,-89.465,4.62954,3.44271,-89.465,-2.0579
block_2,332,9,16359,2,-99.1741,5.00649,3.60202,-99.1741,-1.73551
block_2,333,9,16360,2,-108.457,5.69403,3.08365,-108.457,-1.25386
block_2,334,9,16361,2,-98.7242,5.24053,3.04127,-98.7242,-1.54873
block_2,335,9,16362,2,-107.969,5.97103,2.58009,-107.969,-1.08949
block_2,336,9,16363,2,-118.881,5.6837,3.40447,-118.881,-1.31999
block_2,337,9,16364,2,-128.227,6.56729,2.63882,-128.227,-0.985182
block_2,338,9,16365,2,-118.282,6.13334,2.96247,-118.282,-1.03124
block_2,339,9,16366,2,-127.564,7.0754,2.24548,-127.564,-0.63921
block_2,340,9,16367,2,-137.546,7.61657,1.79515,-137.546,-0.692372
block_2,341,9,16368,2,-146.77,9.08153,0.741574,-146.77,-0.410401
block_2,342,9,16369,2,-136.8,8.25151,1.40735,-136.8,-0.276286
block_2,343,9,16370,2,-145.938,9.92011,0.424643,-145.938,0.00403925
block_2,344,9,16371,2,-117.719,6.52434,2.49774,-117.719,-0.821642
block_2,345,9,16372,2,-126.954,7.53686,1.83358,-126.954,-0.445292
block_2,346,9,16373,2,-117.194,6.84731,2.05913,-117.194,-0.687985
block_2,347,9,16374,2,-126.395,7.90888,1.4828,-126.395,-0.36127
block_2,348,9,16375,2,-136.147,8.81848,1.08842,-136.147,-0.157936
block_2,349,9,16376,2,-145.311,10.4018,0.350348,-145.311,-0.0383679
block_2,350,9,16377,2,-135.57,9.18894,0.879,-135.57,-0.138625
block_2,351,9,16378,2,-144.715,10.7067,0.283056,-144.715,-0.021259
block_2,352,9,16379,2,-79.8337,4.21473,3.15239,-79.8337,-2.37782
block_2,353,9,16380,2,-89.0706,4.76541,2.86055,-89.0706,-1.85767
block_2,354,9,16381,2,-79.4863,4.26121,2.56791,-79.4863,-2.14025
block_2,355,9,16382,2,-88.6933,4.84632,2.32309,-88.6933,-1.66421
block_2,356,9,16383,2,-98.2965,5.41361,2.51318,-98.2965,-1.38286
block_2,357,9,16384,2,-107.508,6.17862,2.11378,-107.508,-0.95996
block_2,358,9,16385,2,-97.8899,5.52409,2.02945,-97.8899,-1.23178
block_2,359,9,16386,2,-107.074,6.31197,1.69321,-107.074,-0.850392
block_2,360,9,16387,2,-79.1522,4.26203,2.0386,-79.1522,-1.90354
block_2,361,9,16388,2,-88.3325,4.87467,1.83746,-88.3325,-1.47656
block_2,362,9,16389,2,-78.8312,4.22207,1.5685,-78.8312,-1.67073
block_2,363,9,16390,2,-87.9872,4.85453,1.40658,-87.9872,-1.2946
block_2,364,9,16391,2,-97.5029,5.57311,1.595,-97.5029,-1.08992
block_2,365,9,16392,2,-106.662,6.37217,1.31901,-106.662,-0.750802
block_2,366,9,16393,2,-97.1339,5.56475,1.21085,-97.1339,-0.954396
block_2,367,9,16394,2,-106.27,6.36531,0.989571,-106.27,-0.65675
block_2,368,9,16395,2,-116.703,7.08444,1.66835,-116.703,-0.599258
block_2,369,9,16396,2,-125.878,8.1557,1.19044,-125.878,-0.315375
block_2,370,9,16397,2,-116.242,7.22855,1.32383,-116.242,-0.52941
block_2,371,9,16398,2,-125.394,8.2923,0.934822,-125.394,-0.27835
block_2,372,9,16399,2,-135.031,9.41464,0.70026,-135.031,-0.119118
block_2,373,9,16400,2,-144.162,10.8712,0.225385,-144.162,-0.0224877
block_2,374,9,16401,2,-134.527,9.51788,0.544611,-134.527,-0.106837
block_2,375,9,16402,2,-143.64,10.9151,0.173394,-143.64,-0.0192064
block_2,376,9,16403,2,-115.807,7.2869,1.0197,-115.807,-0.466911
block_2,377,9,16404,2,-124.937,8.33117,0.7104,-124.937,-0.246058
block_2,378,9,16405,2,-115.394,7.26837,0.75305,-115.394,-0.408323
block_2,379,9,16406,2,-124.505,8.28507,0.513745,-124.505,-0.215232
block_2,380,9,16407,2,-134.051,9.51675,0.406974,-134.051,-0.0944753
block_2,381,9,16408,2,-143.148,10.8522,0.126986,-143.148,-0.0174104
block_2,382,9,16409,2,-133.602,9.42483,0.286114,-133.602,-0.0828528
block_2,383,9,16410,2,-142.683,10.6953,0.0859904,-142.683,-0.0151806
block_2,384,9,16411,2,-5.95888,0.189284,0.649594,-5.26541,-4.37833
block_2,385,9,16412,2,-14.4341,0.669147,0.885738,-14.4341,-4.05044
block_2,386,9,16413,2,-5.48214,-0.0878405,0.352953,-5.12595,-3.6118
block_2,387,9,16414,2,-14.2786,0.415266,0.547775,-14.2786,-3.36859
block_2,388,9,16415,2,-23.6004,1.13113,1.07099,-23.6004,-3.69358
block_2,389,9,16416,2,-32.7641,1.58651,1.20472,-32.7641,-3.31809
block_2,390,9,16417,2,-23.4271,0.902988,0.703801,-23.4271,-3.09233
block_2,391,9,16418,2,-32.5719,1.38476,0.818974,-32.5719,-2.79284
block_2,392,9,16419,2,-5.06622,-0.309978,0.143298,-4.99352,-2.92318
block_2,393,9,16420,2,-14.1295,0.202969,0.294828,-14.1295,-2.74896
block_2,394,9,16421,2,-4.86965,-0.478021,0.00182194,-4.86965,-2.31849
block_2,395,9,16422,2,-13.9884,0.0333722,0.111396,-13.9884,-2.19859
block_2,396,9,16423,2,-23.2604,0.704386,0.418437,-23.2604,-2.5408
block_2,397,9,16424,2,-32.3864,1.20173,0.511163,-32.3864,-2.30742
block_2,398,9,16425,2,-23.1012,0.537761,0.202253,-23.1012,-2.04622
block_2,399,9,16426,2,-32.2086,1.0407,0.271034,-32.2086,-1.86873
block_2,400,9,16427,2,-41.9248,2.04636,1.28764,-41.9248,-2.93295
block_2,401,9,16428,2,-51.0818,2.52154,1.32145,-51.0818,-2.54613
block_2,402,9,16429,2,-41.7126,1.87021,0.892804,-41.7126,-2.47893
block_2,403,9,16430,2,-50.849,2.369,0.926084,-50.849,-2.15861
block_2,404,9,16431,2,-60.2345,3.02284,1.30875,-60.2345,-2.1648
block_2,405,9,16432,2,-69.3818,3.56101,1.25298,-69.3818,-1.79564
block_2,406,9,16433,2,-59.9805,2.89082,0.92073,-59.9805,-1.83917
block_2,407,9,16434,2,-69.1065,3.44536,0.879708,-69.1065,-1.52744
block_2,408,9,16435,2,-41.5078,1.70299,0.571673,-41.5078,-2.05697
block_2,409,9,16436,2,-50.6243,2.21642,0.600032,-50.6243,-1.797
block_2,410,9,16437,2,-41.3109,1.54851,0.315922,-41.3109,-1.67326
block_2,411,9,16438,2,-50.408,2.06795,0.336488,-50.408,-1.46662
block_2,412,9,16439,2,-59.7356,2.75042,0.597555,-59.7356,-1.53455
block_2,413,9,16440,2,-68.8414,3.31343,0.566722,-68.8414,-1.2762
block_2,414,9,16441,2,-59.4998,2.60607,0.333572,-59.4998,-1.25526
block_2,415,9,16442,2,-68.5861,3.16998,0.309213,-68.5861,-1.0453
block_2,416,9,16443,2,-4.7552,-0.596056,-0.0880937,-4.7552,-1.79801
block_2,417,9,16444,2,-13.8558,-0.0953419,-0.0169075,-13.8558,-1.71955
block_2,418,9,16445,2,-4.65055,-0.670067,-0.140343,-4.65055,-1.35792
block_2,419,9,16446,2,-13.7323,-0.18694,-0.102692,-13.7323,-1.31016
block_2,420,9,16447,2,-22.9502,0.402984,0.0429579,-22.9502,-1.61166
block_2,421,9,16448,2,-32.0389,0.902776,0.0881594,-32.0389,-1.48023
block_2,422,9,16449,2,-22.8078,0.298068,-0.0706997,-22.8078,-1.23685
block_2,423,9,16450,2,-31.8775,0.787392,-0.0473919,-31.8775,-1.14255
block_2,424,9,16451,2,-4.55564,-0.706889,-0.166035,-4.55564,-0.991845
block_2,425,9,16452,2,-13.6179,-0.246288,-0.156534,-13.6179,-0.966147
block_2,426,9,16453,2,-4.4701,-0.71345,-0.173722,-4.4701,-0.691962
block_2,427,9,16454,2,-13.5121,-0.27868,-0.186987,-13.5121,-0.681631
block_2,428,9,16455,2,-22.6739,0.219843,-0.148558,-22.6739,-0.919127
block_2,429,9,16456,2,-31.7243,0.692813,-0.14463,-31.7243,-0.854142
block_2,430,9,16457,2,-22.5483,0.164508,-0.19891,-22.5483,-0.65415
block_2,431,9,16458,2,-31.5791,0.616578,-0.211426,-31.5791,-0.611886
block_2,432,9,16459,2,-41.1222,1.40878,0.116719,-41.1222,-1.33126
block_2,433,9,16460,2,-50.2002,1.92634,0.127943,-50.2002,-1.17064
block_2,434,9,16461,2,-40.9418,1.2844,-0.0346543,-40.9418,-1.03208
block_2,435,9,16462,2,-50.0008,1.7931,-0.0332469,-50.0008,-0.910362
block_2,436,9,16463,2,-59.2729,2.46112,0.122348,-59.2729,-1.00407
block_2,437,9,16464,2,-68.3403,3.01895,0.101611,-68.3403,-0.837013
block_2,438,9,16465,2,-59.0547,2.31789,-0.0428316,-59.0547,-0.782261
block_2,439,9,16466,2,-68.1035,2.86338,-0.0620015,-68.1035,-0.652504
block_2,440,9,16467,2,-40.7694,1.17483,-0.146368,-40.7694,-0.774947
block_2,441,9,16468,2,-49.8095,1.66875,-0.154445,-49.8095,-0.685508
block_2,442,9,16469,2,-40.6049,1.07881,-0.225782,-40.6049,-0.557655
block_2,443,9,16470,2,-49.6259,1.55309,-0.24246,-49.6259,-0.494554
block_2,444,9,16471,2,-58.8446,2.17784,-0.168582,-58.8446,-0.589852
block_2,445,9,16472,2,-67.875,2.70556,-0.187547,-67.875,-0.491946
block_2,446,9,16473,2,-58.6423,2.04169,-0.261148,-58.6423,-0.425809
block_2,447,9,16474,2,-67.6544,2.54708,-0.280711,-67.6544,-0.354654
block_2,448,9,16475,2,-78.5228,4.14687,1.15847,-78.5228,-1.44507
block_2,449,9,16476,2,-87.6563,4.79128,1.03062,-87.6563,-1.11933
block_2,450,9,16477,2,-78.2262,4.04223,0.807051,-78.2262,-1.22985
block_2,451,9,16478,2,-87.339,4.69098,0.707939,-87.339,-0.952539
block_2,452,9,16479,2,-96.7814,5.50509,0.876101,-96.7814,-0.824636
block_2,453,9,16480,2,-105.897,6.29887,0.70313,-105.897,-0.567052
block_2,454,9,16481,2,-96.4438,5.40089,0.588826,-96.4438,-0.701366
block_2,455,9,16482,2,-105.54,6.18082,0.457558,-105.54,-0.481848
block_2,456,9,16483,2,-77.9411,3.9138,0.511162,-77.9411,-1.02815
block_2,457,9,16484,2,-87.0342,4.55971,0.435682,-87.0342,-0.796208
block_2,458,9,16485,2,-77.6666,3.76675,0.266612,-77.6666,-0.842477
block_2,459,9,16486,2,-86.7409,4.4032,0.210128,-86.7409,-0.652135
block_2,460,9,16487,2,-96.12,5.25898,0.34632,-96.12,-0.585801
block_2,461,9,16488,2,-105.198,6.01891,0.250405,-105.198,-0.401905
block_2,462,9,16489,2,-95.8086,5.0858,0.145298,-95.8086,-0.479194
block_2,463,9,16490,2,-104.869,5.8204,0.0788508,-104.869,-0.328075
block_2,464,9,16491,2,-115.002,7.18261,0.521611,-115.002,-0.352324
block_2,465,9,16492,2,-124.095,8.16527,0.343214,-124.095,-0.185664
block_2,466,9,16493,2,-114.627,7.0389,0.323473,-114.627,-0.29904
block_2,467,9,16494,2,-123.703,7.98231,0.197413,-123.703,-0.157348
block_2,468,9,16495,2,-133.175,9.25448,0.181229,-133.175,-0.0714141
block_2,469,9,16496,2,-142.242,10.4564,0.0503813,-142.242,-0.0131057
block_2,470,9,16497,2,-132.768,9.017,0.0916911,-132.768,-0.0604228
block_2,471,9,16498,2,-141.822,10.1476,0.0200372,-141.822,-0.0110486
block_2,472,9,16499,2,-114.268,6.84603,0.1566,-114.268,-0.248938
block_2,473,9,16500,2,-123.328,7.74592,0.0749194,-123.328,-0.130651
block_2,474,9,16501,2,-113.923,6.61213,0.0187315,-113.923,-0.202605
block_2,475,9,16502,2,-122.968,7.46509,-0.0258957,-122.968,-0.105917
block_2,476,9,16503,2,-132.379,8.72298,0.0167235,-132.379,-0.0500047
block_2,477,9,16504,2,-141.421,9.7803,-0.00525737,-141.421,-0.0091063
block_2,478,9,16505,2,-132.006,8.38225,-0.044633,-132.006,-0.040341
block_2,479,9,16506,2,-141.035,9.3652,-0.0258151,-141.035,-0.00729785
block_2,480,9,16507,2,-77.4022,3.6056,0.0685279,-77.4022,-0.674621
block_2,481,9,16508,2,-86.4583,4.22664,0.0270051,-86.4583,-0.52168
block_2,482,9,16509,2,-77.1471,3.43412,-0.0883054,-77.1471,-0.52558
block_2,483,9,16510,2,-86.1855,4.03449,-0.118266,-86.1855,-0.405658
block_2,484,9,16511,2,-95.5085,4.88723,-0.017952,-95.5085,-0.382551
block_2,485,9,16512,2,-104.552,5.59195,-0.0602377,-104.552,-0.261084
block_2,486,9,16513,2,-95.2186,4.66848,-0.147396,-95.2186,-0.296507
block_2,487,9,16514,2,-104.246,5.33949,-0.170209,-104.246,-0.201408
block_2,488,9,16515,2,-76.9006,3.25537,-0.209169,-76.9006,-0.395589
block_2,489,9,16516,2,-85.9215,3.83058,-0.230355,-85.9215,-0.304314
block_2,490,9,16517,2,-76.6621,3.07176,-0.299198,-76.6621,-0.284208
block_2,491,9,16518,2,-85.6656,3.61804,-0.313842,-85.6656,-0.217377
block_2,492,9,16519,2,-94.9377,4.43408,-0.2471,-94.9377,-0.221292
block_2,493,9,16520,2,-103.949,5.06826,-0.254512,-103.949,-0.149239
block_2,494,9,16521,2,-94.665,4.1879,-0.321081,-94.665,-0.15675
block_2,495,9,16522,2,-103.66,4.78279,-0.316575,-103.66,-0.104498
block_2,496,9,16523,2,-113.59,6.34461,-0.0926467,-113.59,-0.160533
block_2,497,9,16524,2,-122.621,7.14804,-0.106875,-122.621,-0.0834476
block_2,498,9,16525,2,-113.268,6.05017,-0.180235,-113.268,-0.123053
block_2,499,9,16526,2,-122.285,6.80219,-0.17003,-122.285,-0.0634399
block_2,500,9,16527,2,-131.645,8.00387,-0.0935148,-131.645,-0.0315593
block_2,501,9,16528,2,-140.662,8.91233,-0.042027,-140.662,-0.00565651
block_2,502,9,16529,2,-131.296,7.59603,-0.131189,-131.296,-0.0237484
block_2,503,9,16530,2,-140.301,8.43075,-0.0543398,-140.301,-0.00419845
block_2,504,9,16531,2,-112.956,5.73472,-0.246833,-112.956,-0.0903095
block_2,505,9,16532,2,-121.958,6.43415,-0.217466,-121.958,-0.0459852
block_2,506,9,16533,2,-112.652,5.40345,-0.295245,-112.652,-0.0622676
block_2,507,9,16534,2,-121.639,6.04971,-0.251303,-121.639,-0.0310715
block_2,508,9,16535,2,-130.956,7.16604,-0.158997,-130.956,-0.0169482
block_2,509,9,16536,2,-139.949,7.92848,-0.0632312,-139.949,-0.00293254
block_2,510,9,16537,2,-130.624,6.72028,-0.178301,-130.624,-0.0111565
block_2,511,9,16538,2,-139.604,7.4125,-0.0691877,-139.604,-0.00185827
block_2,512,9,16539,2,-3.30494,-3.27401,0.136802,140.965,0.0048573
block_2,513,9,16540,2,-3.39804,-3.33642,0.36137,131.837,0.0227349
block_2,514,9,16541,2,-3.21785,-3.18596,0.124664,140.528,0.00461882
block_2,515,9,16542,2,-3.25322,-3.19373,0.333473,131.442,0.0222427
block_2,516,9,16543,2,-3.50972,-3.41405,0.511193,122.708,0.0480352
block_2,517,9,16544,2,-3.60159,-3.48419,0.592509,113.58,0.0701414
block_2,518,9,16545,2,-3.31307,-3.22033,0.479471,122.354,0.0490355
block_2,519,9,16546,2,-3.36438,-3.24716,0.56683,113.268,0.0761995
block_2,520,9,16547,2,-3.10904,-3.07602,0.113154,140.098,0.00436102
block_2,521,9,16548,2,-3.09947,-3.04182,0.305808,131.052,0.0214639
block_2,522,9,16549,2,-2.97961,-2.94524,0.102294,139.677,0.00410728
block_2,523,9,16550,2,-2.93558,-2.87934,0.27881,130.667,0.0205636
block_2,524,9,16551,2,-3.11783,-3.02858,0.445428,122.003,0.0487603
block_2,525,9,16552,2,-3.1359,-3.02094,0.534772,112.955,0.0789002
block_2,526,9,16553,2,-2.92127,-2.83557,0.410391,121.655,0.0477712
block_2,527,9,16554,2,-2.91266,-2.80112,0.498839,112.642,0.0795172
block_2,528,9,16555,2,-3.65156,-3.52807,0.61506,104.456,0.0809933
block_2,529,9,16556,2,-3.64866,-3.53174,0.590752,95.3385,0.0755883
block_2,530,9,16557,2,-3.3866,-3.25839,0.602528,104.184,0.0967444
block_2,531,9,16558,2,-3.36852,-3.24165,0.5954,95.1037,0.105893
block_2,532,9,16559,2,-3.58913,-3.48632,0.532261,86.2282,0.0520232
block_2,533,9,16560,2,-3.47382,-3.3877,0.451793,77.1264,0.011178
block_2,534,9,16561,2,-3.30521,-3.18838,0.555153,86.0293,0.101204
block_2,535,9,16562,2,-3.19592,-3.09365,0.491437,76.9613,0.0824097
block_2,536,9,16563,2,-3.13489,-3.00546,0.578836,103.908,0.105799
block_2,537,9,16564,2,-3.10366,-2.97125,0.584184,94.8636,0.124995
block_2,538,9,16565,2,-2.89272,-2.76451,0.547731,103.63,0.110469
block_2,539,9,16566,2,-2.85066,-2.7161,0.561931,94.6202,0.136489
block_2,540,9,16567,2,-3.03657,-2.91025,0.558237,85.8235,0.13379
block_2,541,9,16568,2,-2.93172,-2.81722,0.508598,76.7883,0.1312
block_2,542,9,16569,2,-2.78042,-2.64843,0.547089,85.613,0.154794
block_2,543,9,16570,2,-2.67931,-2.55627,0.509154,76.6095,0.163965
block_2,544,9,16571,2,-2.83075,-2.79473,0.092051,139.263,0.00387734
block_2,545,9,16572,2,-2.76092,-2.70555,0.252672,130.288,0.0196826
block_2,546,9,16573,2,-2.6636,-2.62554,0.0823429,138.857,0.00369212
block_2,547,9,16574,2,-2.5752,-2.52008,0.22738,129.914,0.0189513
block_2,548,9,16575,2,-2.72152,-2.6391,0.375152,121.31,0.0465131
block_2,549,9,16576,2,-2.69211,-2.58455,0.460683,112.331,0.0790314
block_2,550,9,16577,2,-2.51731,-2.43767,0.340092,120.969,0.0453696
block_2,551,9,16578,2,-2.47247,-2.36894,0.421314,112.022,0.078242
block_2,552,9,16579,2,-2.47916,-2.43853,0.0730302,138.459,0.00357605
block_2,553,9,16580,2,-2.37835,-2.32274,0.202731,129.547,0.0185046
block_2,554,9,16581,2,-2.2782,-2.23425,0.0639071,138.067,0.00355807
block_2,555,9,16582,2,-2.17035,-2.1134,0.178331,129.185,0.0184997
block_2,556,9,16583,2,-2.3078,-2.23029,0.30525,120.632,0.044701
block_2,557,9,16584,2,-2.25248,-2.15277,0.381248,111.716,0.0778444
block_2,558,9,16585,2,-2.09251,-2.01634,0.270373,120.3,0.0448789
block_2,559,9,16586,2,-2.03141,-1.93504,0.340629,111.414,0.0784789
block_2,560,9,16587,2,-2.65737,-2.53194,0.511816,103.352,0.1125
block_2,561,9,16588,2,-2.60699,-2.47273,0.532124,94.375,0.143078
block_2,562,9,16589,2,-2.42689,-2.30512,0.472845,103.075,0.113269
block_2,563,9,16590,2,-2.37081,-2.23849,0.497242,94.129,0.146853
block_2,564,9,16591,2,-2.53471,-2.40004,0.52586,85.3994,0.167991
block_2,565,9,16592,2,-2.43728,-2.30879,0.497619,76.4265,0.185573
block_2,566,9,16593,2,-2.2979,-2.16274,0.497616,85.184,0.176279
block_2,567,9,16594,2,-2.20457,-2.07303,0.477433,76.2408,0.199766
block_2,568,9,16595,2,-2.19991,-2.08217,0.431939,102.8,0.113905
block_2,569,9,16596,2,-2.14082,-2.01144,0.459017,93.8833,0.149467
block_2,570,9,16597,2,-1.9756,-1.86189,0.389769,102.526,0.11536
block_2,571,9,16598,2,-1.91619,-1.79021,0.418652,93.6384,0.152227
block_2,572,9,16599,2,-2.0689,-1.93472,0.464605,84.9676,0.181908
block_2,573,9,16600,2,-1.98037,-1.84753,0.451192,76.0533,0.209443
block_2,574,9,16601,2,-1.84696,-1.71463,0.428472,84.7512,0.186607
block_2,575,9,16602,2,-1.76408,-1.63106,0.420839,75.8648,0.216811
block_2,576,9,16603,2,-3.3066,-3.23585,0.36011,68.0337,-0.0438947
block_2,577,9,16604,2,-3.09316,-3.03386,0.265929,58.9505,-0.108706
block_2,578,9,16605,2,-3.04268,-2.95583,0.413104,67.9005,0.0510522
block_2,579,9,16606,2,-2.84932,-2.77593,0.327685,58.8473,0.00998092
block_2,580,9,16607,2,-2.84031,-2.78686,0.175658,49.8766,-0.178089
block_2,581,9,16608,2,-2.5555,-2.50109,0.0934416,40.8119,-0.246858
block_2,582,9,16609,2,-2.62079,-2.55686,0.241107,49.8017,-0.0371859
block_2,583,9,16610,2,-2.36286,-2.30273,0.157633,40.7636,-0.086571
block_2,584,9,16611,2,-2.78979,-2.68958,0.442476,67.7587,0.117732
block_2,585,9,16612,2,-2.6132,-2.52697,0.366266,58.7351,0.0950518
block_2,586,9,16613,2,-2.54702,-2.43649,0.453942,67.6103,0.163815
block_2,587,9,16614,2,-2.3849,-2.28787,0.386809,58.6158,0.155167
block_2,588,9,16615,2,-2.40552,-2.33071,0.285281,49.7176,0.065592
block_2,589,9,16616,2,-2.17121,-2.10335,0.203642,40.7064,0.0321707
block_2,590,9,16617,2,-2.19552,-2.11067,0.312412,49.6262,0.139571
block_2,591,9,16618,2,-1.98232,-1.90627,0.234586,40.6417,0.119011
block_2,592,9,16619,2,-2.24696,-2.18301,0.021416,31.7558,-0.310327
block_2,593,9,16620,2,-1.92456,-1.83873,-0.0399032,22.7078,-0.364652
block_2,594,9,16621,2,-2.08203,-2.01817,0.0799711,31.7329,-0.134463
block_2,595,9,16622,2,-1.78622,-1.70783,0.00949987,22.7091,-0.177633
block_2,596,9,16623,2,-1.60223,-1.47353,-0.0911878,13.6673,-0.407013
block_2,597,9,16624,2,-1.30207,-1.09167,-0.133871,4.6338,-0.435664
block_2,598,9,16625,2,-1.48637,-1.37595,-0.053442,13.6919,-0.213533
block_2,599,9,16626,2,-1.19871,-1.02614,-0.109249,4.68074,-0.240398
block_2,600,9,16627,2,-1.91552,-1.84806,0.124299,31.7012,-0.00235453
block_2,601,9,16628,2,-1.64503,-1.56828,0.049153,22.702,-0.0353604
block_2,602,9,16629,2,-1.74965,-1.67676,0.156314,31.6623,0.0956307
block_2,603,9,16630,2,-1.50312,-1.42462,0.079776,22.6878,0.071502
block_2,604,9,16631,2,-1.36881,-1.26734,-0.0207672,13.7084,-0.0646524
block_2,605,9,16632,2,-1.0999,-0.948203,-0.0850895,4.72006,-0.0885811
block_2,606,9,16633,2,-1.2506,-1.15238,0.00645008,13.718,0.0484506
block_2,607,9,16634,2,-1.00308,-0.862419,-0.0627461,4.75271,0.0279369
block_2,608,9,16635,2,-2.3137,-2.19564,0.452039,67.457,0.195189
block_2,609,9,16636,2,-2.16455,-2.05887,0.393543,58.491,0.197083
block_2,610,9,16637,2,-2.08931,-1.96604,0.440321,67.3001,0.21642
block_2,611,9,16638,2,-1.95219,-1.83977,0.389881,58.3622,0.226101
block_2,612,9,16639,2,-1.99162,-1.89802,0.326147,49.529,0.19216
block_2,613,9,16640,2,-1.79766,-1.71369,0.253333,40.5711,0.181768
block_2,614,9,16641,2,-1.79445,-1.6934,0.329532,49.4274,0.229267
block_2,615,9,16642,2,-1.61833,-1.527,0.262386,40.4958,0.226787
block_2,616,9,16643,2,-1.87342,-1.74668,0.421533,67.1408,0.231059
block_2,617,9,16644,2,-1.74778,-1.63019,0.378518,58.2304,0.2464
block_2,618,9,16645,2,-1.66563,-1.53666,0.397756,66.9799,0.241848
block_2,619,9,16646,2,-1.5512,-1.42958,0.361517,58.0965,0.261263
block_2,620,9,16647,2,-1.60437,-1.49703,0.325033,49.3223,0.255621
block_2,621,9,16648,2,-1.44511,-1.34697,0.263839,40.4168,0.25924
block_2,622,9,16649,2,-1.42157,-1.30881,0.314562,49.2149,0.275016
block_2,623,9,16650,2,-1.27848,-1.17401,0.259343,40.3351,0.283366
block_2,624,9,16651,2,-1.58632,-1.50718,0.177988,31.6173,0.167471
block_2,625,9,16652,2,-1.36256,-1.2802,0.10241,22.6675,0.150865
block_2,626,9,16653,2,-1.42703,-1.34129,0.191169,31.5675,0.219769
block_2,627,9,16654,2,-1.22504,-1.13743,0.11819,22.6424,0.209408
block_2,628,9,16655,2,-1.13339,-1.03464,0.0283493,13.7217,0.133423
block_2,629,9,16656,2,-0.90837,-0.772395,-0.0429025,4.77964,0.116387
block_2,630,9,16657,2,-1.01878,-0.91683,0.04535,13.7206,0.196856
block_2,631,9,16658,2,-0.816636,-0.680942,-0.0258162,4.80174,0.183131
block_2,632,9,16659,2,-1.27289,-1.18039,0.197472,31.5138,0.258008
block_2,633,9,16660,2,-1.09191,-0.998047,0.128197,22.6134,0.252781
block_2,634,9,16661,2,-1.12466,-1.02531,0.198215,31.4573,0.28677
block_2,635,9,16662,2,-0.964142,-0.863215,0.13336,22.5813,0.2858
block_2,636,9,16663,2,-0.908119,-0.800946,0.05798,13.7154,0.244429
block_2,637,9,16664,2,-0.72882,-0.590212,-0.0114988,4.81991,0.233751
block_2,638,9,16665,2,-0.80242,-0.688442,0.0667549,13.7073,0.281069
block_2,639,9,16666,2,-0.645641,-0.501837,0.000154525,4.83495,0.27317
block_2,640,9,16667,2,-2.06107,-2.01274,0.0546776,137.684,0.00368728
block_2,641,9,16668,2,-1.95125,-1.89185,0.153573,128.83,0.0191316
block_2,642,9,16669,2,-1.82771,-1.77336,0.0449187,137.307,0.00400659
block_2,643,9,16670,2,-1.72114,-1.65776,0.127581,128.48,0.0206927
block_2,644,9,16671,2,-1.87129,-1.7955,0.234947,119.973,0.0463188
block_2,645,9,16672,2,-1.80905,-1.71534,0.299337,111.114,0.0807602
block_2,646,9,16673,2,-1.64453,-1.56781,0.198258,119.65,0.0495126
block_2,647,9,16674,2,-1.58591,-1.49381,0.257152,110.819,0.085235
block_2,648,9,16675,2,-1.57755,-1.51442,0.0339779,136.939,0.00471933
block_2,649,9,16676,2,-1.48052,-1.41071,0.099184,128.137,0.0235622
block_2,650,9,16677,2,-1.30978,-1.23268,0.0208719,136.579,0.00570705
block_2,651,9,16678,2,-1.23105,-1.1505,0.0665984,127.801,0.02868
block_2,652,9,16679,2,-1.41358,-1.33393,0.15947,119.333,0.0550508
block_2,653,9,16680,2,-1.36363,-1.27136,0.214108,110.526,0.0923117
block_2,654,9,16681,2,-1.18206,-1.09577,0.11826,119.019,0.0636418
block_2,655,9,16682,2,-1.1458,-1.04993,0.171103,110.236,0.101372
block_2,656,9,16683,2,-1.75368,-1.64364,0.346726,102.255,0.118406
block_2,657,9,16684,2,-1.69656,-1.57398,0.377015,93.3948,0.156096
block_2,658,9,16685,2,-1.53455,-1.42737,0.303156,101.986,0.123564
block_2,659,9,16686,2,-1.48208,-1.36231,0.33485,93.1525,0.161524
block_2,660,9,16687,2,-1.63166,-1.50148,0.390437,84.5351,0.191585
block_2,661,9,16688,2,-1.55525,-1.42263,0.387798,75.6761,0.223452
block_2,662,9,16689,2,-1.4228,-1.29449,0.351427,84.3197,0.197443
block_2,663,9,16690,2,-1.35349,-1.2213,0.353041,75.4874,0.230265
block_2,664,9,16691,2,-1.3195,-1.21354,0.259688,101.719,0.130666
block_2,665,9,16692,2,-1.27326,-1.15492,0.292948,92.9117,0.168163
block_2,666,9,16693,2,-1.11078,-1.00275,0.217726,101.454,0.138366
block_2,667,9,16694,2,-1.07094,-0.951114,0.252274,92.6718,0.173762
block_2,668,9,16695,2,-1.2203,-1.09285,0.312116,84.1051,0.203827
block_2,669,9,16696,2,-1.15827,-1.02601,0.316992,75.2992,0.23738
block_2,670,9,16697,2,-1.02374,-0.895157,0.272541,83.8911,0.20916
block_2,671,9,16698,2,-0.968887,-0.835421,0.279238,75.1114,0.244086
block_2,672,9,16699,2,-1.02433,-0.922403,0.00337534,136.231,0.00899475
block_2,673,9,16700,2,-0.978421,-0.878445,0.028395,127.472,0.0367795
block_2,674,9,16701,2,-0.728017,-0.572955,-0.0211873,135.894,0.00949714
block_2,675,9,16702,2,-0.732755,-0.601579,-0.0213878,127.148,0.0542288
block_2,676,9,16703,2,-0.957679,-0.857903,0.0752589,118.71,0.0751398
block_2,677,9,16704,2,-0.939207,-0.832601,0.131929,109.948,0.11047
block_2,678,9,16705,2,-0.758855,-0.632745,0.0421239,118.4,0.0897201
block_2,679,9,16706,2,-0.754377,-0.618716,0.106509,109.656,0.100242
block_2,680,9,16707,2,-0.397998,-0.163581,-0.0827753,135.588,0.0562648
block_2,681,9,16708,2,-0.540146,-0.365165,-0.0454792,126.821,0.0829114
block_2,682,9,16709,2,-0.17833,0.275767,-0.126527,135.246,-0.0786044
block_2,683,9,16710,2,-0.588195,-0.209564,0.0418952,126.41,-0.149566
block_2,684,9,16711,2,-0.619234,-0.420461,0.052556,118.073,0.0368584
block_2,685,9,16712,2,-0.586653,-0.384231,0.0833567,109.362,0.0476644
block_2,686,9,16713,2,-0.493474,-0.133648,0.0333421,117.743,-0.111724
block_2,687,9,16714,2,-0.473737,-0.135106,0.0371825,109.06,-0.057093
block_2,688,9,16715,2,-0.911781,-0.794394,0.180125,101.189,0.140251
block_2,689,9,16716,2,-0.875001,-0.748301,0.212555,92.4323,0.173761
block_2,690,9,16717,2,-0.723041,-0.581415,0.145317,100.923,0.12563
block_2,691,9,16718,2,-0.688749,-0.543012,0.170645,92.1925,0.161414
block_2,692,9,16719,2,-0.832831,-0.699379,0.231388,83.6777,0.210487
block_2,693,9,16720,2,-0.784833,-0.647873,0.237982,74.9242,0.249122
block_2,694,9,16721,2,-0.650154,-0.502776,0.184804,83.4645,0.20454
block_2,695,9,16722,2,-0.60903,-0.461847,0.189606,74.7377,0.2513
block_2,696,9,16723,2,-0.560164,-0.359016,0.104659,100.655,0.0822888
block_2,697,9,16724,2,-0.525225,-0.330701,0.118365,91.9523,0.131804
block_2,698,9,16725,2,-0.432726,-0.120806,0.0413166,100.385,0.00945641
block_2,699,9,16726,2,-0.394832,-0.1116,0.0450488,91.7113,0.0842378
block_2,700,9,16727,2,-0.489429,-0.303685,0.126253,83.2515,0.189177
block_2,701,9,16728,2,-0.452493,-0.276384,0.128549,74.552,0.250499
block_2,702,9,16729,2,-0.355407,-0.101523,0.0472752,83.039,0.164895
block_2,703,9,16730,2,-0.317748,-0.0918175,0.0477521,74.3674,0.248194
block_2,704,9,16731,2,-1.46555,-1.33509,0.370491,66.8181,0.250822
block_2,705,9,16732,2,-1.36221,-1.23732,0.340352,57.9613,0.273233
block_2,706,9,16733,2,-1.27272,-1.14106,0.340673,66.656,0.25936
block_2,707,9,16734,2,-1.18042,-1.05272,0.315898,57.8254,0.284239
block_2,708,9,16735,2,-1.24601,-1.12848,0.299485,49.1057,0.290505
block_2,709,9,16736,2,-1.11865,-1.0082,0.250093,40.2515,0.302676
block_2,710,9,16737,2,-1.07747,-0.955622,0.280596,48.9957,0.304568
block_2,711,9,16738,2,-0.965654,-0.849471,0.236782,40.1669,0.320155
block_2,712,9,16739,2,-1.08651,-0.953608,0.308573,66.494,0.268222
block_2,713,9,16740,2,-1.00527,-0.875004,0.288343,57.6894,0.295725
block_2,714,9,16741,2,-0.906177,-0.771598,0.273565,66.3323,0.277671
block_2,715,9,16742,2,-0.836229,-0.703391,0.257034,57.5537,0.308842
block_2,716,9,16743,2,-0.915628,-0.78977,0.258051,48.8853,0.319296
block_2,717,9,16744,2,-0.819427,-0.697679,0.219553,40.0817,0.338464
block_2,718,9,16745,2,-0.760243,-0.630496,0.231265,48.7752,0.336621
block_2,719,9,16746,2,-0.680051,-0.552741,0.197933,39.9967,0.360188
block_2,720,9,16747,2,-0.982823,-0.876512,0.194363,31.3987,0.309948
block_2,721,9,16748,2,-0.8424,-0.733733,0.134382,22.5471,0.312636
block_2,722,9,16749,2,-0.84764,-0.734248,0.186488,31.3388,0.330948
block_2,723,9,16750,2,-0.727102,-0.610154,0.131693,22.5115,0.337013
block_2,724,9,16751,2,-0.702348,-0.580373,0.0720953,13.6968,0.311116
block_2,725,9,16752,2,-0.567481,-0.41706,0.00927538,4.84767,0.305789
block_2,726,9,16753,2,-0.608218,-0.477542,0.0742708,13.6849,0.338506
block_2,727,9,16754,2,-0.494342,-0.336865,0.0159641,4.85881,0.335643
block_2,728,9,16755,2,-0.71929,-0.598692,0.174725,31.2784,0.352901
block_2,729,9,16756,2,-0.618452,-0.492931,0.125408,22.4752,0.362422
block_2,730,9,16757,2,-0.597976,-0.470075,0.158724,31.218,0.378911
block_2,731,9,16758,2,-0.516415,-0.382563,0.115298,22.439,0.392349
block_2,732,9,16759,2,-0.519977,-0.380631,0.073365,13.6722,0.366965
block_2,733,9,16760,2,-0.42587,-0.262107,0.0202603,4.86912,0.366575
block_2,734,9,16761,2,-0.437204,-0.290355,0.0692604,13.6594,0.40023
block_2,735,9,16762,2,-0.361456,-0.193656,0.0221377,4.87931,0.402443
block_2,736,9,16763,2,-0.731501,-0.593926,0.233829,66.1713,0.287776
block_2,737,9,16764,2,-0.673436,-0.537231,0.220303,57.4187,0.324763
block_2,738,9,16765,2,-0.565315,-0.41973,0.186105,66.0113,0.298935
block_2,739,9,16766,2,-0.519541,-0.376244,0.175331,57.2849,0.34509
block_2,740,9,16767,2,-0.611807,-0.477572,0.198807,48.6659,0.358611
block_2,741,9,16768,2,-0.548103,-0.414797,0.170767,39.9126,0.388115
block_2,742,9,16769,2,-0.47235,-0.331172,0.158325,48.5579,0.387833
block_2,743,9,16770,2,-0.424553,-0.284407,0.136177,39.8299,0.425575
block_2,744,9,16771,2,-0.415645,-0.248845,0.125669,65.8526,0.312448
block_2,745,9,16772,2,-0.379287,-0.220786,0.118117,57.1528,0.372305
block_2,746,9,16773,2,-0.28283,-0.0819972,0.0464514,65.6956,0.330963
block_2,747,9,16774,2,-0.25169,-0.0721119,0.0434995,57.0229,0.41015
block_2,748,9,16775,2,-0.343783,-0.192118,0.106512,48.4519,0.427734
block_2,749,9,16776,2,-0.309391,-0.162773,0.0915419,39.7494,0.47679
block_2,750,9,16777,2,-0.224619,-0.0621035,0.039098,48.3486,0.483025
block_2,751,9,16778,2,-0.201486,-0.0519648,0.0334894,39.672,0.547253
block_2,752,9,16779,2,-0.483915,-0.348853,0.137617,31.1586,0.412327
block_2,753,9,16780,2,-0.420613,-0.279768,0.100781,22.4036,0.430545
block_2,754,9,16781,2,-0.376962,-0.235902,0.110002,31.1006,0.457055
block_2,755,9,16782,2,-0.330332,-0.185662,0.0809146,22.3697,0.481322
block_2,756,9,16783,2,-0.359204,-0.207624,0.0616402,13.6475,0.442302
block_2,757,9,16784,2,-0.30045,-0.132548,0.0215238,4.89013,0.447347
block_2,758,9,16785,2,-0.285328,-0.133728,0.0500083,13.637,0.497724
block_2,759,9,16786,2,-0.242552,-0.0801653,0.0183387,4.90236,0.505897
block_2,760,9,16787,2,-0.276379,-0.132725,0.073933,31.045,0.517901
block_2,761,9,16788,2,-0.245025,-0.101973,0.0544191,22.3382,0.549878
block_2,762,9,16789,2,-0.181914,-0.0416873,0.026935,30.9926,0.600941
block_2,763,9,16790,2,-0.165493,-0.0312711,0.0197016,22.31,0.642661
block_2,764,9,16791,2,-0.215619,-0.0705339,0.0337244,13.6289,0.571902
block_2,765,9,16792,2,-0.188465,-0.038432,0.0125503,4.91684,0.583519
block_2,766,9,16793,2,-0.151895,-0.0207189,0.0120525,13.6241,0.671446
block_2,767,9,16794,2,-0.14092,-0.0100357,0.00424273,4.93449,0.686783
block_2,768,9,16795,2,-4.39336,-0.696279,-0.169768,-4.39336,-0.449887
block_2,769,9,16796,2,-13.4147,-0.289363,-0.200759,-13.4147,-0.449879
block_2,770,9,16797,2,-4.32468,-0.661225,-0.158755,-4.32468,-0.257255
block_2,771,9,16798,2,-13.3248,-0.283229,-0.202974,-13.3248,-0.263876
block_2,772,9,16799,2,-22.4306,0.128064,-0.228545,-22.4306,-0.436604
block_2,773,9,16800,2,-31.4415,0.555863,-0.254456,-31.4415,-0.41164
block_2,774,9,16801,2,-22.3201,0.106615,-0.24288,-22.3201,-0.260691
block_2,775,9,16802,2,-31.3108,0.507765,-0.279237,-31.3108,-0.24867
block_2,776,9,16803,2,-4.26327,-0.613337,-0.143882,-4.26327,-0.10609
block_2,777,9,16804,2,-13.242,-0.264641,-0.197448,-13.242,-0.116708
block_2,778,9,16805,2,-4.20828,-0.556843,-0.127303,-4.20828,0.0109933
block_2,779,9,16806,2,-13.1653,-0.237365,-0.186963,-13.1653,-0.0017925
block_2,780,9,16807,2,-22.2163,0.0965623,-0.246146,-22.2163,-0.120499
block_2,781,9,16808,2,-31.1866,0.469483,-0.290234,-31.1866,-0.117993
block_2,782,9,16809,2,-22.1185,0.0947056,-0.241581,-22.1185,-0.0102565
block_2,783,9,16810,2,-31.0682,0.438447,-0.290991,-31.0682,-0.0146099
block_2,784,9,16811,2,-40.4477,0.994602,-0.279323,-40.4477,-0.377016
block_2,785,9,16812,2,-49.4495,1.44537,-0.303386,-49.4495,-0.335068
block_2,786,9,16813,2,-40.2973,0.920256,-0.312463,-40.2973,-0.22921
block_2,787,9,16814,2,-49.2799,1.34457,-0.342531,-49.2799,-0.204002
block_2,788,9,16815,2,-58.4472,1.90963,-0.326233,-58.4472,-0.2883
block_2,789,9,16816,2,-67.4408,2.38899,-0.346774,-67.4408,-0.239263
block_2,790,9,16817,2,-58.2586,1.78147,-0.368907,-58.2586,-0.174921
block_2,791,9,16818,2,-67.2339,2.2319,-0.390499,-67.2339,-0.143905
block_2,792,9,16819,2,-40.1532,0.853784,-0.329751,-40.1532,-0.110084
block_2,793,9,16820,2,-49.1163,1.24947,-0.364416,-49.1163,-0.0979404
block_2,794,9,16821,2,-40.0147,0.793274,-0.334902,-40.0147,-0.015372
block_2,795,9,16822,2,-48.9581,1.15886,-0.372807,-48.9581,-0.013291
block_2,796,9,16823,2,-58.076,1.6568,-0.39356,-58.076,-0.0828995
block_2,797,9,16824,2,-67.0327,2.07611,-0.416076,-67.0327,-0.0663679
block_2,798,9,16825,2,-57.8987,1.53504,-0.403916,-57.8987,-0.00926027
block_2,799,9,16826,2,-66.8367,1.92171,-0.427101,-66.8367,-0.0042329
block_2,800,9,16827,2,-4.15885,-0.495202,-0.110414,-4.15885,0.100701
block_2,801,9,16828,2,-13.094,-0.204565,-0.173502,-13.094,0.0869817
block_2,802,9,16829,2,-4.11414,-0.431184,-0.0940813,-4.11414,0.169053
block_2,803,9,16830,2,-13.0273,-0.168845,-0.158449,-13.0273,0.155211
block_2,804,9,16831,2,-22.0259,0.0982817,-0.231623,-22.0259,0.0755228
block_2,805,9,16832,2,-30.9549,0.412371,-0.284271,-30.9549,0.066326
block_2,806,9,16833,2,-21.9378,0.104957,-0.218076,-21.9378,0.141955
block_2,807,9,16834,2,-30.8459,0.389271,-0.272193,-30.8459,0.129422
block_2,808,9,16835,2,-4.07335,-0.366976,-0.0788141,-4.07335,0.221427
block_2,809,9,16836,2,-12.9644,-0.132315,-0.14275,-12.9644,0.207979
block_2,810,9,16837,2,-4.03567,-0.30429,-0.064896,-4.03567,0.262636
block_2,811,9,16838,2,-12.9047,-0.096677,-0.127038,-12.9047,0.249905
block_2,812,9,16839,2,-21.8535,0.112788,-0.202247,-21.8535,0.193768
block_2,813,9,16840,2,-30.7407,0.367449,-0.256346,-30.7407,0.179002
block_2,814,9,16841,2,-21.7723,0.120168,-0.185067,-21.7723,0.235313
block_2,815,9,16842,2,-30.6385,0.345459,-0.237898,-30.6385,0.219099
block_2,816,9,16843,2,-39.8811,0.73697,-0.330886,-39.8811,0.0591491
block_2,817,9,16844,2,-48.8048,1.07152,-0.370776,-48.8048,0.0535689
block_2,818,9,16845,2,-39.7518,0.683295,-0.320035,-39.7518,0.117563
block_2,819,9,16846,2,-48.6556,0.986327,-0.360773,-48.6556,0.1062
block_2,820,9,16847,2,-57.7261,1.41555,-0.403054,-57.7261,0.0490508
block_2,821,9,16848,2,-66.6453,1.76863,-0.426582,-66.6453,0.0450215
block_2,822,9,16849,2,-57.5576,1.2977,-0.393457,-57.5576,0.0950796
block_2,823,9,16850,2,-66.4578,1.61671,-0.416963,-66.4578,0.0839422
block_2,824,9,16851,2,-39.6261,0.63086,-0.304137,-39.6261,0.163762
block_2,825,9,16852,2,-48.51,0.902251,-0.344701,-48.51,0.148043
block_2,826,9,16853,2,-39.5035,0.578437,-0.284525,-39.5035,0.201421
block_2,827,9,16854,2,-48.3673,0.818331,-0.323989,-48.3673,0.182395
block_2,828,9,16855,2,-57.3924,1.18083,-0.377066,-57.3924,0.131811
block_2,829,9,16856,2,-66.2737,1.46571,-0.400153,-66.2737,0.115054
block_2,830,9,16857,2,-57.2302,1.06429,-0.355335,-57.2302,0.162141
block_2,831,9,16858,2,-66.0923,1.31534,-0.377568,-66.0923,0.14084
block_2,832,9,16859,2,-76.4307,2.8851,-0.363218,-76.4307,-0.190438
block_2,833,9,16860,2,-85.4168,3.39944,-0.373078,-85.4168,-0.144135
block_2,834,9,16861,2,-76.2057,2.69677,-0.40564,-76.2057,-0.112854
block_2,835,9,16862,2,-85.1744,3.17684,-0.412076,-85.1744,-0.083528
block_2,836,9,16863,2,-94.3994,3.93317,-0.373183,-94.3994,-0.10239
block_2,837,9,16864,2,-103.379,4.48696,-0.359703,-103.379,-0.0668623
block_2,838,9,16865,2,-94.1401,3.6726,-0.406983,-94.1401,-0.0574522
block_2,839,9,16866,2,-103.103,4.18406,-0.386987,-103.103,-0.0358185
block_2,840,9,16867,2,-75.9865,2.50774,-0.430388,-75.9865,-0.0497276
block_2,841,9,16868,2,-84.9376,2.95187,-0.434442,-84.9376,-0.0342444
block_2,842,9,16869,2,-75.7723,2.31874,-0.440864,-75.7723,0.000861225
block_2,843,9,16870,2,-84.7057,2.72581,-0.443326,-84.7057,0.00519456
block_2,844,9,16871,2,-93.8863,3.4084,-0.425715,-93.8863,-0.0209802
block_2,845,9,16872,2,-102.833,3.87682,-0.401237,-102.833,-0.0107066
block_2,846,9,16873,2,-93.6372,3.14238,-0.432222,-93.6372,0.0081175
block_2,847,9,16874,2,-102.567,3.56751,-0.404937,-102.567,0.00923183
block_2,848,9,16875,2,-112.355,5.06082,-0.328186,-112.355,-0.0387344
block_2,849,9,16876,2,-121.328,5.65388,-0.273607,-121.328,-0.0185982
block_2,850,9,16877,2,-112.063,4.71062,-0.348209,-112.063,-0.0193893
block_2,851,9,16878,2,-121.021,5.25091,-0.286323,-121.021,-0.00839314
block_2,852,9,16879,2,-130.298,6.26425,-0.190429,-130.298,-0.00633357
block_2,853,9,16880,2,-139.266,6.88874,-0.0726843,-139.266,-0.000968116
block_2,854,9,16881,2,-129.977,5.80257,-0.196633,-129.977,-0.00241083
block_2,855,9,16882,2,-138.932,6.3621,-0.0741686,-138.932,-0.000248798
block_2,856,9,16883,2,-111.777,4.35606,-0.357643,-111.777,-0.00381636
block_2,857,9,16884,2,-120.72,4.84435,-0.291231,-120.72,-0.000230672
block_2,858,9,16885,2,-111.495,3.99978,-0.358551,-111.495,0.00846533
block_2,859,9,16886,2,-120.422,4.43716,-0.289909,-120.422,0.00615045
block_2,860,9,16887,2,-129.661,5.33907,-0.198059,-129.661,0.000702105
block_2,861,9,16888,2,-138.602,5.83656,-0.0740492,-138.602,0.000317088
block_2,862,9,16889,2,-129.348,4.87687,-0.195722,-129.348,0.00310985
block_2,863,9,16890,2,-138.274,5.31526,-0.0726866,-138.274,0.000749668
block_2,864,9,16891,2,-75.5626,2.13023,-0.43994,-75.5626,0.0409403
block_2,865,9,16892,2,-84.4781,2.49967,-0.4414,-84.4781,0.0363646
block_2,866,9,16893,2,-75.3566,1.94254,-0.429955,-75.3566,0.0725783
block_2,867,9,16894,2,-84.2541,2.27421,-0.430851,-84.2541,0.060884
block_2,868,9,16895,2,-93.3921,2.87601,-0.428928,-93.3921,0.0310112
block_2,869,9,16896,2,-102.305,3.258,-0.400211,-102.305,0.0248125
block_2,870,9,16897,2,-93.1505,2.61047,-0.417823,-93.1505,0.0489057
block_2,871,9,16898,2,-102.046,2.94982,-0.388807,-102.046,0.0368738
block_2,872,9,16899,2,-75.1538,1.75587,-0.412732,-75.1538,0.0978443
block_2,873,9,16900,2,-84.0331,2.05004,-0.413378,-84.0331,0.0803785
block_2,874,9,16901,2,-74.9537,1.57027,-0.3896,-74.9537,0.118793
block_2,875,9,16902,2,-83.8146,1.82762,-0.390191,-83.8146,0.0964644
block_2,876,9,16903,2,-92.9117,2.34675,-0.400448,-92.9117,0.0630077
block_2,877,9,16904,2,-101.79,2.64425,-0.372085,-101.79,0.0462472
block_2,878,9,16905,2,-92.6753,2.08566,-0.377889,-92.6753,0.0745086
block_2,879,9,16906,2,-101.536,2.3424,-0.351006,-101.536,0.0537303
block_2,880,9,16907,2,-111.217,3.64396,-0.352704,-111.217,0.0179733
block_2,881,9,16908,2,-120.128,4.0317,-0.283711,-120.128,0.011031
block_2,882,9,16909,2,-110.941,3.29039,-0.341562,-110.941,0.0252364
block_2,883,9,16910,2,-119.836,3.62992,-0.273757,-119.836,0.0146957
block_2,884,9,16911,2,-129.038,4.41843,-0.190492,-129.038,0.00492453
block_2,885,9,16912,2,-137.949,4.80061,-0.0703887,-137.949,0.00107038
block_2,886,9,16913,2,-128.731,3.96569,-0.183086,-128.731,0.00625894
block_2,887,9,16914,2,-137.626,4.29439,-0.0674089,-137.626,0.00130086
block_2,888,9,16915,2,-110.668,2.94056,-0.326271,-110.668,0.03077
block_2,889,9,16916,2,-119.546,3.23339,-0.260933,-119.546,0.0174165
block_2,890,9,16917,2,-110.397,2.59573,-0.307662,-110.397,0.0350489
block_2,891,9,16918,2,-119.258,2.84339,-0.245903,-119.258,0.0194293
block_2,892,9,16919,2,-128.424,3.52016,-0.174077,-128.424,0.00721916
block_2,893,9,16920,2,-137.304,3.79789,-0.0639486,-137.304,0.00146054
block_2,894,9,16921,2,-128.12,3.08302,-0.163905,-128.12,0.00789076
block_2,895,9,16922,2,-136.982,3.31203,-0.0601632,-136.982,0.0015668
block_2,896,9,16923,2,-4.00037,-0.244475,-0.0524757,-4.00037,0.297041
block_2,897,9,16924,2,-12.8474,-0.0633094,-0.111721,-12.8474,0.285217
block_2,898,9,16925,2,-3.96671,-0.18863,-0.041624,-3.96671,0.32867
block_2,899,9,16926,2,-12.7918,-0.0333606,-0.0970343,-12.7918,0.317849
block_2,900,9,16927,2,-21.6935,0.125758,-0.16717,-21.6935,0.270615
block_2,901,9,16928,2,-30.5387,0.322062,-0.217664,-30.5387,0.253476
block_2,902,9,16929,2,-21.6165,0.128417,-0.148945,-21.6165,0.303431
block_2,903,9,16930,2,-30.4408,0.296177,-0.196166,-30.4408,0.28566
block_2,904,9,16931,2,-3.93399,-0.13772,-0.0323579,-3.93399,0.361377
block_2,905,9,16932,2,-12.7372,-0.00784676,-0.0830622,-12.7372,0.351556
block_2,906,9,16933,2,-3.90148,-0.0927064,-0.0246334,-3.90148,0.39901
block_2,907,9,16934,2,-12.683,0.0122418,-0.069715,-12.683,0.390069
block_2,908,9,16935,2,-21.5405,0.127132,-0.130548,-21.5405,0.337341
block_2,909,9,16936,2,-30.344,0.266832,-0.173635,-30.344,0.318989
block_2,910,9,16937,2,-21.4651,0.120935,-0.111872,-21.4651,0.375854
block_2,911,9,16938,2,-30.2479,0.233119,-0.149977,-30.2479,0.356674
block_2,912,9,16939,2,-39.3832,0.524937,-0.26215,-39.3832,0.234006
block_2,913,9,16940,2,-48.227,0.733667,-0.29966,-48.227,0.212395
block_2,914,9,16941,2,-39.2648,0.469374,-0.23763,-39.2648,0.264772
block_2,915,9,16942,2,-48.0885,0.647404,-0.272388,-48.0885,0.241012
block_2,916,9,16943,2,-57.0703,0.947429,-0.329293,-57.0703,0.188867
block_2,917,9,16944,2,-65.9131,1.16521,-0.350175,-65.9131,0.163733
block_2,918,9,16945,2,-56.9121,0.829533,-0.299609,-56.9121,0.214666
block_2,919,9,16946,2,-65.7357,1.01481,-0.318566,-65.7357,0.186116
block_2,920,9,16947,2,-39.1476,0.410848,-0.211269,-39.1476,0.29678
block_2,921,9,16948,2,-47.9514,0.558722,-0.242531,-47.9514,0.271018
block_2,922,9,16949,2,-39.0313,0.348531,-0.183017,-39.0313,0.332898
block_2,923,9,16950,2,-47.8152,0.466871,-0.210107,-47.8152,0.304933
block_2,924,9,16951,2,-56.7554,0.709875,-0.266655,-56.7554,0.242044
block_2,925,9,16952,2,-65.5596,0.863514,-0.283046,-65.5596,0.210272
block_2,926,9,16953,2,-56.5996,0.587755,-0.230522,-56.5996,0.273218
block_2,927,9,16954,2,-65.3845,0.710621,-0.243747,-65.3845,0.238213
block_2,928,9,16955,2,-3.86849,-0.0546837,-0.0183094,-3.86849,0.445627
block_2,929,9,16956,2,-12.6284,0.0258165,-0.056676,-12.6284,0.437269
block_2,930,9,16957,2,-3.83424,-0.0250501,-0.0130871,-3.83424,0.505744
block_2,931,9,16958,2,-12.5728,0.0315393,-0.0433149,-12.5728,0.497418
block_2,932,9,16959,2,-21.3895,0.108802,-0.092472,-21.3895,0.422555
block_2,933,9,16960,2,-30.1519,0.194129,-0.124676,-30.1519,0.401904
block_2,934,9,16961,2,-21.3132,0.0895286,-0.0714457,-21.3132,0.481305
block_2,935,9,16962,2,-30.0553,0.14885,-0.0966342,-30.0553,0.457997
block_2,936,9,16963,2,-3.79793,-0.00569729,-0.00843146,-3.79793,0.584622
block_2,937,9,16964,2,-12.5154,0.0276403,-0.0285816,-12.5154,0.575437
block_2,938,9,16965,2,-3.75868,0.000772761,-0.00348367,-3.75868,0.688597
block_2,939,9,16966,2,-12.4554,0.0117008,-0.0108939,-12.4554,0.677229
block_2,940,9,16967,2,-21.2354,0.0615536,-0.0472922,-21.2354,0.556503
block_2,941,9,16968,2,-29.9578,0.0960201,-0.0639835,-29.9578,0.52865
block_2,942,9,16969,2,-21.1554,0.0227435,-0.0177653,-21.1554,0.653419
block_2,943,9,16970,2,-29.8585,0.0338971,-0.0238835,-29.8585,0.618288
block_2,944,9,16971,2,-38.9152,0.281651,-0.152354,-38.9152,0.375841
block_2,945,9,16972,2,-47.6795,0.371214,-0.174674,-47.6795,0.344968
block_2,946,9,16973,2,-38.799,0.209443,-0.11809,-38.799,0.428264
block_2,947,9,16974,2,-47.5439,0.27125,-0.135084,-47.5439,0.393022
block_2,948,9,16975,2,-56.4445,0.462616,-0.190934,-56.4445,0.309929
block_2,949,9,16976,2,-65.2101,0.555567,-0.200617,-65.2101,0.271361
block_2,950,9,16977,2,-56.2899,0.334208,-0.146957,-56.2899,0.353286
block_2,951,9,16978,2,-65.0365,0.398215,-0.153164,-65.0365,0.310096
block_2,952,9,16979,2,-38.6821,0.131023,-0.0781001,-38.6821,0.49298
block_2,953,9,16980,2,-47.4082,0.166553,-0.0891072,-47.4082,0.450836
block_2,954,9,16981,2,-38.5642,0.0451599,-0.0290391,-38.5642,0.573324
block_2,955,9,16982,2,-47.272,0.0565311,-0.0330239,-47.272,0.520377
block_2,956,9,16983,2,-56.1356,0.202602,-0.0964895,-56.1356,0.403775
block_2,957,9,16984,2,-64.8637,0.239175,-0.0997552,-64.8637,0.353514
block_2,958,9,16985,2,-55.9815,0.0680157,-0.0356262,-55.9815,0.461652
block_2,959,9,16986,2,-64.6918,0.0796119,-0.0366255,-64.6918,0.399714
block_2,960,9,16987,2,-74.7556,1.3857,-0.361414,-74.7556,0.137465
block_2,961,9,16988,2,-83.5981,1.60726,-0.362011,-83.5981,0.110766
block_2,962,9,16989,2,-74.5593,1.20193,-0.328606,-74.5593,0.155929
block_2,963,9,16990,2,-83.3831,1.3891,-0.329077,-83.3831,0.124949
block_2,964,9,16991,2,-92.4406,1.82788,-0.350752,-92.4406,0.0845798
block_2,965,9,16992,2,-101.284,2.04528,-0.32611,-101.284,0.060077
block_2,966,9,16993,2,-92.2074,1.574,-0.319113,-92.2074,0.0944478
block_2,967,9,16994,2,-101.032,1.75387,-0.297434,-101.032,0.0659756
block_2,968,9,16995,2,-74.3641,1.01846,-0.291306,-74.3641,0.176261
block_2,969,9,16996,2,-83.1692,1.17298,-0.291184,-83.1692,0.140877
block_2,970,9,16997,2,-74.1699,0.834601,-0.249542,-74.1699,0.200444
block_2,971,9,16998,2,-82.9559,0.958189,-0.248044,-82.9559,0.160569
block_2,972,9,16999,2,-91.975,1.32441,-0.282473,-91.975,0.105457
block_2,973,9,17000,2,-100.782,1.46924,-0.264362,-100.782,0.0722587
block_2,974,9,17001,2,-91.743,1.07898,-0.239718,-91.743,0.119742
block_2,975,9,17002,2,-100.532,1.1924,-0.225334,-100.532,0.0799147
block_2,976,9,17003,2,-110.127,2.25709,-0.286237,-110.127,0.0384667
block_2,977,9,17004,2,-118.971,2.46108,-0.229128,-118.971,0.0208959
block_2,978,9,17005,2,-109.858,1.92587,-0.262145,-109.858,0.0413084
block_2,979,9,17006,2,-118.685,2.08761,-0.210883,-118.685,0.0218341
block_2,980,9,17007,2,-127.816,2.65519,-0.152906,-127.816,0.00832274
block_2,981,9,17008,2,-136.662,2.83739,-0.0561806,-136.662,0.00161943
block_2,982,9,17009,2,-127.513,2.23746,-0.141397,-127.513,0.00845638
block_2,983,9,17010,2,-136.343,2.3743,-0.0521326,-136.343,0.00162626
block_2,984,9,17011,2,-109.59,1.6036,-0.235004,-109.59,0.0436369
block_2,985,9,17012,2,-118.4,1.72444,-0.191317,-118.4,0.0219894
block_2,986,9,17013,2,-109.322,1.29249,-0.203574,-109.322,0.0457709
block_2,987,9,17014,2,-118.115,1.374,-0.170091,-118.115,0.0205456
block_2,988,9,17015,2,-127.211,1.83063,-0.129752,-127.211,0.00809858
block_2,989,9,17016,2,-136.024,1.92272,-0.0482607,-136.024,0.00143011
block_2,990,9,17017,2,-126.909,1.43577,-0.118888,-126.909,0.00633673
block_2,991,9,17018,2,-135.705,1.48192,-0.0450472,-135.705,0.00117665
block_2,992,9,17019,2,-73.9764,0.649548,-0.203491,-73.9764,0.229844
block_2,993,9,17020,2,-82.7432,0.743693,-0.199762,-82.7432,0.185895
block_2,994,9,17021,2,-73.7837,0.463126,-0.153334,-73.7837,0.264427
block_2,995,9,17022,2,-82.5312,0.528518,-0.147442,-82.5312,0.216994
block_2,996,9,17023,2,-91.5111,0.836001,-0.190429,-91.5111,0.13994
block_2,997,9,17024,2,-100.28,0.92328,-0.177291,-100.28,0.0931233
block_2,998,9,17025,2,-91.2791,0.593872,-0.136063,-91.2791,0.168123
block_2,999,9,17026,2,-100.028,0.65632,-0.121418,-100.028,0.117047
block_2,1000,9,17027,2,-73.5921,0.276243,-0.0984554,-73.5921,0.301844
block_2,1001,9,17028,2,-82.3204,0.313875,-0.0922202,-82.3204,0.250502
block_2,1002,9,17029,2,-73.4023,0.09136,-0.0357831,-73.4023,0.337499
block_2,1003,9,17030,2,-82.112,0.103177,-0.0328318,-82.112,0.278311
block_2,1004,9,17031,2,-91.0483,0.351657,-0.0809296,-91.0483,0.200757
block_2,1005,9,17032,2,-99.7754,0.390491,-0.0648573,-99.7754,0.153113
block_2,1006,9,17033,2,-90.8199,0.115488,-0.0274372,-90.8199,0.225889
block_2,1007,9,17034,2,-99.5254,0.126934,-0.0192163,-99.5254,0.184212
block_2,1008,9,17035,2,-109.053,0.995763,-0.164132,-109.053,0.0476849
block_2,1009,9,17036,2,-117.829,1.04094,-0.146497,-117.829,0.016442
block_2,1010,9,17037,2,-108.779,0.713521,-0.107588,-108.779,0.0634177
block_2,1011,9,17038,2,-117.54,0.737611,-0.110367,-117.54,0.00549556
block_2,1012,9,17039,2,-126.608,1.05524,-0.109711,-126.608,0.00200905
block_2,1013,9,17040,2,-135.389,1.04948,-0.0442482,-135.389,-0.00122422
block_2,1014,9,17041,2,-126.307,0.696313,-0.109161,-126.307,-0.0130717
block_2,1015,9,17042,2,-135.075,0.618343,-0.0484809,-135.075,-0.000956272
block_2,1016,9,17043,2,-108.504,0.424649,-0.046895,-108.504,0.104334
block_2,1017,9,17044,2,-117.233,0.465342,-0.0320919,-117.233,0.0481208
block_2,1018,9,17045,2,-108.226,0.143224,-0.00727196,-108.226,0.15795
block_2,1019,9,17046,2,-116.926,0.1429,0.0080875,-116.926,0.149237
block_2,1020,9,17047,2,-125.997,0.403231,-0.0849434,-125.997,-0.0471239
block_2,1021,9,17048,2,-134.781,0.168984,-0.0898163,-134.781,-0.0489338
block_2,1022,9,17049,2,-125.604,0.217001,0.0356569,-125.604,0.155441
block_2,1023,9,17050,2,-134.446,-0.277686,-0.123619,-134.446,0.0777792
